168
Lattice="12.468885909578862 12.45567328789723 0.03660330624248233 -12.500938529614729 12.48755672392219 -0.009239974293740398 0.04511830023029706 0.02729054207635215 25.947711814671685" Properties=species:S:1:pos:R:3:forces:R:3:energies:R:1 energy=-508.10144297551153 stress="-0.0002711131625838505 9.474669262162885e-05 6.333938662957625e-05 9.474669262162885e-05 -0.0003785793721154039 4.4197856080256154e-05 6.333938662957625e-05 4.4197856080256154e-05 1.455386139078038e-05" free_energy=-508.10144297551153 pbc="T T T"
Pb       0.02143617      -0.00524820       0.00824691       0.00044701       0.00056686      -0.00112672      -4.40453075
I       -3.10872325       5.40813357      -0.07350979      -0.00041705      -0.00136121      -0.00207965      -2.10919011
I        0.84388456       3.11081233       0.20269916       0.00128258      -0.00091735       0.00112568      -2.10945832
I        0.12038643      -0.22119812       3.25207187      -0.00359199       0.00000632      -0.00100752      -2.12238602
Cs       3.27201745       3.05270164       3.27097839       0.00661893       0.00150885       0.00000230      -3.53326007
Pb       0.03605900      -0.00870013       6.49042720       0.00129971      -0.00027303      -0.00029129      -4.40544763
I       -3.09562925       7.04321257       6.55611856       0.00062007      -0.00123660      -0.01118941      -2.11446245
I       -0.80097596       3.10295547       6.30621985      -0.00003383      -0.00109116       0.00243029      -2.11014761
I       -0.05164558       0.22051947       9.75139323       0.00544618      -0.00118224      -0.00057412      -2.13134600
Cs       2.98486403       3.18626305       9.73075229      -0.00906721       0.00087150      -0.00285972      -3.51813101
Pb       0.01332016       6.22688032       0.01540047      -0.00087401      -0.00093131      -0.00114609      -4.40772114
I        3.13444035       7.05149100       0.09517232      -0.00031019      -0.00184784      -0.00546764      -2.11036157
I       -0.81468318       9.34665470      -0.17271207       0.00002621      -0.00167840      -0.00134421      -2.10947753
I       -0.08400967       6.43574811       3.25160647      -0.00018919      -0.00727536      -0.00287888      -2.11617713
Cs      -3.22281683       3.15957420       3.24616094       0.00106793      -0.00004054      -0.00208653      -3.52586953
Pb       0.03020915       6.22054484       6.48483307       0.00193082       0.00097255      -0.00360536      -4.40729899
I        3.14487293       5.41207905       6.41627482       0.00190348      -0.00148436       0.00118477      -2.10924539
I        0.85954722       9.31954611       6.59490267       0.00369298      -0.00382247      -0.01313871      -2.09085367
I        0.10413257       6.04203608       9.74810807      -0.00740727       0.01105113      -0.00143798      -2.13730854
Cs      -2.95926729       3.09250257       9.73551543       0.00095726       0.00018632       0.00083062      -3.51863319
Pb       0.02598065       0.01300947      12.99015219       0.00408754      -0.00198261       0.00041091      -4.38112902
I       -3.08285244       5.42618497      12.90486400       0.00128655      -0.00069869       0.00125983      -2.11194424
I        0.85739923       3.12585480      13.17771427      -0.00210383      -0.00085221      -0.00056047      -2.11511877
I        0.15279564      -0.21050057      16.22003236      -0.00481114      -0.00206663       0.00104861      -2.12272974
Cs       3.27377469       3.06781656      16.25058433       0.00147817       0.00054887      -0.00091380      -3.52895740
Pb       0.05359293       0.01198120      19.47251862      -0.00005514       0.00078236      -0.00052191      -4.40301134
I       -3.07379411       7.06430009      19.58200605       0.00050982      -0.00411017       0.00641145      -2.11569927
I       -0.77159634       3.12744517      19.27783300      -0.00075273      -0.00077512       0.00102366      -2.11086477
I       -0.03654714       0.23582231      22.71048247       0.00287313       0.00200013      -0.00101214      -2.12277941
Cs       3.05856812       3.18118600      22.72231697      -0.00181416      -0.00429678       0.00085311      -3.52290148
Pb       0.04189182       6.23858732      12.99945664       0.00129275       0.00266456       0.00055653      -4.39663214
I        3.15888709       7.07326533      13.08200475      -0.00038342       0.00025328      -0.00257457      -2.11330841
I       -0.83856522       9.37489527      12.88399166      -0.00489162      -0.00355850       0.01170084      -2.11507649
I       -0.05143894       6.45162292      16.23700989       0.00311568      -0.00637498       0.00189309      -2.12537558
Cs      -3.20299845       3.17569880      16.22941631       0.00026740      -0.00145914       0.00056241      -3.52255736
Pb       0.04886320       6.24270586      19.48405371       0.00055455      -0.00155811       0.00156263      -4.40287058
I        3.16516504       5.41652851      19.40294973       0.00006717      -0.00144647       0.00762330      -2.11034284
I        0.85958769       9.36812809      19.67282539      -0.00128453      -0.00223353      -0.00070422      -2.11629139
I        0.14886207       6.02986017      22.71928450      -0.00124441      -0.00182053      -0.00042296      -2.12087634
Cs      -2.93924126       3.09833428      22.71535742       0.00018194      -0.00080698      -0.00019196      -3.52344683
Pb      -6.22871033       6.23642362       0.00424052       0.00076852      -0.00001297      -0.00093791      -4.40651881
I       -9.35796895      11.65202707      -0.08164193      -0.00023361       0.00030836      -0.00251816      -2.11137749
I       -5.40642302       9.35541928       0.19234775       0.00137280      -0.00097093      -0.00093322      -2.10981280
I       -6.11946162       6.01440808       3.24443567      -0.00048085      -0.00557737      -0.00188493      -2.11838268
Cs      -2.99375308       9.30350542       3.26752078       0.00038638       0.00945969       0.00275360      -3.53011368
Pb      -6.22208367       6.23610176       6.47767822       0.00058354      -0.00016613      -0.00291610      -4.40503554
I       -9.35255890      13.30070313       6.57256631      -0.00015748       0.00012510      -0.00354455      -2.10898548
I       -7.04803055       9.33903573       6.25031658      -0.00035264      -0.00206969      -0.00482212      -2.10132763
I       -6.30253323       6.44929050       9.73877415       0.00170072      -0.00241110      -0.00094994      -2.13725750
Cs      -3.19044955       9.26501536       9.71689168       0.00399224      -0.02120370       0.00416977      -3.51361909
Pb      -6.23662357      12.46965204       0.00553007       0.00082076      -0.00135232      -0.00391652      -4.40253327
I       -3.11543586      13.29420390       0.09670273      -0.00086953      -0.00027813      -0.00158053      -2.11167525
I       -7.06431381      15.58820341      -0.17526390       0.00127902      -0.00046154       0.00094825      -2.11175982
I       -6.33023287      12.65598019       3.24941029       0.00470280      -0.00829494      -0.00405993      -2.12362296
Cs      -9.48184723       9.40318701       3.23353251      -0.00385696       0.00084994      -0.00646340      -3.52827474
Pb      -6.24682203      12.45075807       6.46652495      -0.00006244      -0.00574993       0.00309962      -4.42364426
I       -3.09902168      11.65663815       6.48866307       0.00246536      -0.00264301       0.01461915      -2.11209963
I       -5.52379653      15.59275156       6.52499550      -0.00280743      -0.00252021      -0.00525958      -2.01427115
I       -6.30813996      11.97586014       9.74712066      -0.00522387      -0.00849437      -0.00186036      -2.13257484
Cs      -9.25598580       9.27533586       9.73375868      -0.00799163      -0.00973976       0.00467343      -3.54406426
Pb      -6.20577036       6.25410822      12.98754137       0.00205761       0.00185337       0.00156220      -4.39623851
I       -9.22920717      11.70104000      12.97426670       0.00760825      -0.00297184       0.00819907      -2.11807386
I       -5.36008109       9.40199733      13.20814745       0.00207023      -0.00089312       0.00516234      -2.11682981
I       -6.09354741       6.03868632      16.22498382       0.00189742      -0.00121077       0.00207928      -2.12504911
Cs      -2.97879173       9.23797581      16.29602023      -0.00257192      -0.00530611       0.00945544      -3.51595582
Pb      -6.19769121       6.25225621      19.47214992       0.00011664      -0.00081347       0.00132759      -4.40230709
I       -9.31850632      13.31688654      19.54601560      -0.00020771      -0.00042683      -0.00707443      -2.11521576
I       -7.01356914       9.37669702      19.26600963       0.00326459      -0.00069004      -0.00141726      -2.11514539
I       -6.28997978       6.48079165      22.70835884       0.00097094       0.00121181      -0.00012408      -2.12083743
Cs      -3.18620479       9.42784646      22.71742232      -0.00191354       0.00037689       0.00132451      -3.52315042
Pb      -6.30905068      12.45574650      12.96121044      -0.00430265      -0.00253140      -0.00564328      -4.19065030
I       -7.06233813      15.57779018      12.80402860      -0.00536622       0.00089402      -0.00682463      -2.11154878
I       -6.20727029      12.73992224      16.17098329       0.02083803       0.00908149       0.00178654      -2.13990521
Cs      -9.45750194       9.39908369      16.24763926      -0.00150420      -0.00192158       0.00675018      -3.52035822
Pb      -6.19691678      12.49192624      19.47325427       0.00208504       0.00069159      -0.00162786      -4.39563381
I       -3.08182326      11.66852441      19.38314044       0.00027879       0.00091762       0.00666729      -2.10951150
I       -5.38153224      15.60840207      19.67046592      -0.00299420       0.00209397       0.00719417      -2.11525134
I       -6.10068435      12.27677789      22.69626034      -0.00303181       0.00042997      -0.00114641      -2.12508108
Cs      -9.18987467       9.34244958      22.70976633       0.00163311      -0.00019930      -0.00048316      -3.52213155
Pb       6.25448562       6.22297539       0.02146465       0.00009223      -0.00020307      -0.00070150      -4.40672092
I        3.12502665      11.63715557      -0.05687368       0.00053807       0.00120393      -0.00113423      -2.11180994
I        7.07536307       9.34077430       0.21062676      -0.00056293       0.00010822      -0.00312655      -2.10986747
I        6.34516381       6.03770601       3.25826901      -0.00390436       0.00657851       0.00013810      -2.11932762
Cs       9.49465282       9.29879140       3.26559259       0.00237386       0.00788050      -0.00323940      -3.52817906
Pb       6.27052160       6.23489593       6.47350837       0.00077221       0.00179335       0.00069205      -4.43466051
I        3.15208553      13.29334615       6.55377440       0.00110661      -0.00050436      -0.01081612      -2.10551808
I        5.43143130       9.35474710       6.32408018       0.00032366      -0.00143416       0.00195176      -2.11047753
I        6.16553807       6.41312614       9.76347196      -0.00842515       0.00236162      -0.00034680      -2.15591048
Cs       9.27603681       9.47641187       9.75728230      -0.00202529       0.01097321       0.00101445      -3.50444427
Pb       6.24913579      12.45801513       0.03379586      -0.00028081       0.00049253      -0.00125929      -4.40484183
I        9.37033751      13.27998349       0.11992566       0.00025030      -0.00052698      -0.00300263      -2.11111303
I        5.42087974      15.57425477      -0.15327465      -0.00004052      -0.00006460      -0.00210931      -2.10990188
I        6.17032670      12.68154114       3.27713802       0.00619822      -0.00014960      -0.00050162      -2.12072450
Cs       3.02146546       9.38140827       3.25078276       0.00767924      -0.00141319      -0.00749180      -3.52977058
Pb       6.26034211      12.46178324       6.51216428      -0.00081950      -0.00211666      -0.00056993      -4.40429907
I        9.38043144      11.63908365       6.43794987       0.00055444       0.00007121       0.00264721      -2.10987944
I        7.07992594      15.57724888       6.72690878      -0.00005436      -0.00107935       0.00133280      -2.11112252
I        6.33228325      12.25615883       9.78006083      -0.01193844       0.00425884       0.00013490      -2.13697912
Cs       3.26691525       9.30551112       9.74469586      -0.00481667       0.00047812      -0.00088263      -3.55503145
Pb       6.28671709       6.23098785      13.04918944      -0.00279219      -0.00219104       0.00038464      -4.42359118
I        3.07099473      11.67000308      13.04365252      -0.00306268      -0.00340790       0.01383203      -2.10988051
I        7.07789887       9.35857052      13.19336275      -0.00043860      -0.00155889      -0.00078143      -2.11605114
I        6.32923882       6.00956131      16.26163544      -0.02053006      -0.00181655       0.00111107      -2.11840773
Cs       9.51715197       9.27319067      16.24968821       0.00311588      -0.00478763      -0.00441066      -3.53310103
Pb       6.28289904       6.24171640      19.50009441      -0.00154074       0.00065331       0.00140036      -4.40415303
I        3.15874630      13.30131848      19.57377582       0.00239367      -0.00051273      -0.00601757      -2.11329406
I        5.46490753       9.35684267      19.30187748       0.00021090       0.00090351       0.00313938      -2.11206575
I        6.19675157       6.46287067      22.73181752       0.00305268       0.00172828      -0.00017680      -2.12111832
Cs       9.29817461       9.40935395      22.73486466      -0.00164212      -0.00206944      -0.00264547      -3.52267134
Pb       6.29864191      12.47962677      13.02456371      -0.00354371      -0.00227248       0.00261787      -4.38333937
I        9.40029669      13.27708133      13.09451254       0.00104886      -0.00294665      -0.00358583      -2.12615883
I        5.45888613      15.59438749      12.84434991       0.00365633       0.00023367       0.00528517      -2.11689765
I        6.18853209      12.69680701      16.25012047       0.00806150       0.00197761       0.00220336      -2.11988558
Cs       3.02341668       9.37758074      16.27493304      -0.00436770      -0.00790570       0.00672897      -3.52403740
Pb       6.28407656      12.47485524      19.50009415       0.00110431       0.00081789      -0.00018643      -4.40442932
I        9.40327783      11.64315355      19.40756324       0.00103639      -0.00194330       0.00051640      -2.11100905
I        7.09975370      15.59353604      19.69689921       0.00062204       0.00026512       0.00170126      -2.11116820
I        6.38277543      12.25823601      22.73745246      -0.00136211       0.00047680      -0.00039854      -2.12241661
Cs       3.29380723       9.32700888      22.73154604      -0.00099254       0.00014621      -0.00071447      -3.52263910
Pb       0.00416274      12.46283804       0.01768843      -0.00119609      -0.00132724      -0.00417268      -4.40250390
I       -3.12399505      17.88322390      -0.05871492      -0.00042140       0.00024990       0.00298326      -2.11057743
I        0.82523606      15.58173867       0.21215075      -0.00301617       0.00004731       0.00023902      -2.11201752
I        0.10270157      12.22730184       3.26368552      -0.00885206      -0.00466957      -0.00268873      -2.12552571
Cs       3.22829523      15.52758665       3.27632078      -0.00083894       0.00318684      -0.00367582      -3.53345741
Pb       0.04831753      12.43771500       6.47336585       0.00233856      -0.00730421       0.00830602      -4.41594342
I       -3.10977092      19.58652517       6.55173500       0.00063724       0.00375399      -0.00231905      -2.10048009
I       -0.69682164      15.57229125       6.20819112       0.00585783      -0.00316332      -0.01046178      -2.03451386
I        0.34309777      12.18009905       9.76625125      -0.00700492       0.00525746      -0.00223807      -2.09767328
Cs       3.15353440      15.63312888       9.72631657       0.01702230      -0.00645975      -0.00754175      -3.52488948
Pb      -0.00134492      18.70129930       0.02681861      -0.00024693      -0.00008578      -0.00167128      -4.40431382
I        3.11960355      19.52383671       0.11206099       0.00011836      -0.00135032      -0.00349644      -2.11037335
I       -0.82884257      21.81793679      -0.16418800       0.00089030       0.00036427      -0.00431517      -2.11084064
I       -0.07894830      18.94511943       3.27074089       0.00232782       0.00500442      -0.00140000      -2.12494653
Cs      -3.23504449      15.63335114       3.26608766       0.00106724       0.00044647       0.00038573      -3.53948057
Pb       0.01003108      18.69752404       6.48052381      -0.00009052      -0.00034241       0.00039167      -4.42942006
I        3.13285861      17.88707498       6.40630236       0.00040105       0.00123787      -0.00238742      -2.10462660
I        0.82403487      21.82284939       6.69909024       0.00120903      -0.00153087      -0.00102824      -2.10780705
I        0.29888320      18.51320029       9.76574302       0.00268006      -0.01116108       0.00014314      -2.15256150
Pb       0.15088989      12.42339675      12.98922346       0.00876346      -0.00514646      -0.00965863      -4.19954616
I       -3.09257928      17.95381933      13.23757407       0.00101767       0.00132021       0.01891804      -2.01324981
I        0.84885923      15.55745006      13.17262232       0.00810198      -0.00129007      -0.00603846      -2.11126018
I        0.06086058      12.29289259      16.20502488      -0.01729724       0.00738313       0.00385074      -2.12611016
Cs       3.26681617      15.54370247      16.26049729      -0.00068647       0.00297140      -0.00072202      -3.52944927
Pb       0.03709527      12.48539641      19.48958477       0.00022597       0.00019493       0.00267061      -4.39941456
I       -3.09000848      19.53367804      19.56448801       0.00022960      -0.00215851      -0.00831715      -2.11396015
I       -0.78133959      15.60027469      19.29788587       0.00413148       0.00259776       0.00829280      -2.11189589
I       -0.05703686      12.70738122      22.71694579       0.00272115      -0.00079300       0.00121027      -2.12371700
Cs       3.05300816      15.65353354      22.73532361      -0.00144301      -0.00317795      -0.00025461      -3.52355752
Pb       0.02702047      18.70791682      13.04803296       0.00375900      -0.00492541       0.00048506      -4.42636133
I        3.15289658      19.54605068      13.13107185       0.00238548      -0.00235200       0.00349099      -2.11183764
I       -0.78150683      21.83185733      12.81368724       0.00513223      -0.00170767      -0.00492255      -2.11904172
I       -0.02860903      18.92805266      16.25966913       0.01745533      -0.00041385       0.00367947      -2.12075370
Cs      -3.22487820      15.67601738      16.33809674      -0.00281181      -0.00074510       0.01377925      -3.45635123
Pb       0.03625090      18.72128941      19.50193970       0.00195402       0.00069504       0.00317977      -4.40390924
I        3.15289870      17.88925277      19.41297325       0.00130625      -0.00035376       0.00522924      -2.11147004
I        0.84904172      21.83780039      19.69662582       0.00065471       0.00166593       0.00397902      -2.11346815
I        0.13263496      18.49691515      22.73751119      -0.00194483      -0.00015407       0.00067723      -2.12168620
Cs      -2.95752122      15.57305024      22.73267834       0.00049198      -0.00088984       0.00266213      -3.52283937
C       -3.04406059      15.66463821       9.79299140       0.00483818       0.00124047       0.00188293      -9.17461398
N       -3.07397808      16.99325260       9.70763352      -0.00488004       0.01530807      -0.00137227      -8.61811134
H       -2.20295905      17.52418011       9.70003084      -0.02057015       0.01086251      -0.01059065      -3.78528289
H       -3.95652908      17.50252981       9.70714625      -0.01621246       0.00416446      -0.01079499      -3.77517093
N       -4.18445493      14.96848178       9.87475225      -0.00179628       0.00358450       0.00167724      -8.72403204
H       -5.07076908      15.43057994       9.71245812       0.00345213       0.01198098      -0.00280826      -3.64616432
H       -4.19764999      13.95536615       9.81406335      -0.00392604       0.00628214       0.00854683      -3.69747581
N       -1.87042182      15.02609620       9.84609405      -0.00743305       0.02143347       0.00454080      -8.70386710
H       -1.80018699      14.01401532       9.79775803       0.01015068       0.01580293       0.00773778      -3.71375847
H       -1.01223562      15.54575721       9.70256243      -0.00044384       0.02635398       0.00207599      -3.66519413
168
Lattice="12.468885909578862 12.45567328789723 0.03660330624248233 -12.500938529614729 12.48755672392219 -0.009239974293740398 0.04511830023029706 0.02729054207635215 25.947711814671685" Properties=species:S:1:pos:R:3:forces:R:3:energies:R:1 energy=-508.10533097338316 stress="-0.0002699682905123856 8.816373056552538e-05 1.7459029377267647e-05 8.816373056552538e-05 -0.00042461480892156935 8.377591885415882e-05 1.7459029377267647e-05 8.377591885415882e-05 3.839306270186166e-05" free_energy=-508.10533097338316 pbc="T T T"
Pb       0.01732985       0.00153688       0.00070501      -0.00094001      -0.00062019      -0.00013409      -4.40363252
I       -3.10929074       5.39697036      -0.05635265      -0.00039872      -0.00020368       0.00273428      -2.10935259
I        0.84952552       3.11203892       0.22699268       0.00054462      -0.00133796       0.00219357      -2.10925275
I        0.09868227      -0.22272671       3.24726410      -0.00307835      -0.00170872       0.00045493      -2.12660690
Cs       3.29832154       3.07152311       3.28231034       0.00200555       0.00143747      -0.00038637      -3.53345895
Pb       0.02741341      -0.01023299       6.48741151       0.00005678      -0.00125088      -0.00047846      -4.40343921
I       -3.10152594       7.03095345       6.51511765      -0.00201985       0.00188739       0.00222274      -2.11427032
I       -0.79058749       3.11152585       6.31102087      -0.00233138      -0.00183773       0.00400916      -2.11079039
I       -0.03444556       0.21376815       9.74930042       0.00161189      -0.00287176       0.00109797      -2.13595597
Cs       2.95440173       3.17517260       9.72426824      -0.00146115       0.00197241      -0.00204763      -3.51851185
Pb       0.01034419       6.22387748       0.02304087       0.00007084      -0.00221093       0.00152806      -4.40875740
I        3.13040786       7.05140403       0.06142310      -0.00020176      -0.00052860      -0.00175643      -2.10989183
I       -0.81846693       9.34439621      -0.16755105       0.00167125      -0.00144437      -0.00145244      -2.11129581
I       -0.05067312       6.44898094       3.26177063       0.00074837      -0.00632044       0.00124769      -2.11615266
Cs      -3.21899686       3.14967920       3.25381358      -0.00068930      -0.00079213       0.00176608      -3.52575826
Pb       0.03087658       6.23344600       6.49178622      -0.00282603      -0.00139723       0.00049745      -4.40500192
I        3.14447347       5.42785270       6.43645712      -0.00244716      -0.00065038      -0.00001704      -2.10793698
I        0.85089107       9.33842128       6.63489806      -0.00144848      -0.00607722      -0.01379017      -2.09109420
I        0.07277646       6.06488935       9.76321254      -0.00348636       0.00944583       0.00029576      -2.14493610
Cs      -2.94624316       3.08556630       9.73532070      -0.00133975      -0.00158101       0.00150088      -3.51656736
Pb       0.03280255      -0.02671956      12.98984985       0.00008702       0.00090156       0.00024603      -4.37768297
I       -3.07504303       5.41343007      12.91698130      -0.00048158      -0.00448059       0.00177088      -2.11431863
I        0.86553160       3.07848605      13.18264354      -0.00530639       0.00031098      -0.00489529      -2.11478728
I        0.12879805      -0.24455910      16.21929692      -0.00362641      -0.00513774      -0.00081330      -2.12520144
Cs       3.26736126       3.07596370      16.26300261       0.00173107       0.00138397      -0.00076746      -3.53324675
Pb       0.04839675       0.00877710      19.47276865       0.00002594      -0.00146403       0.00062970      -4.40272890
I       -3.06804641       7.05093746      19.59408131       0.00145278      -0.00532557       0.00816321      -2.11865556
I       -0.77358958       3.11935978      19.27641200      -0.00173325      -0.00234163       0.00273031      -2.10800429
I       -0.03138657       0.26480619      22.70747520       0.00156179       0.00040754      -0.00039184      -2.12291976
Cs       3.04848696       3.15408748      22.73911450       0.00009454      -0.00578496       0.00143120      -3.52509327
Pb       0.05802755       6.19871168      13.02786417      -0.00178017       0.00244505       0.00215438      -4.39810098
I        3.17103697       7.04074452      13.06315835      -0.00113531       0.00398696       0.00209640      -2.10808632
I       -0.80723024       9.31547437      13.09534714      -0.01529973       0.00153145      -0.00929969      -2.08933247
I       -0.00186154       6.38161229      16.26404759       0.00081121      -0.00934073       0.00110185      -2.11646392
Cs      -3.20264008       3.15256308      16.22859382      -0.00022083      -0.00541705      -0.00121781      -3.52414573
Pb       0.05530303       6.23022029      19.50348380       0.00132366      -0.00368627       0.00411042      -4.40570540
I        3.16681573       5.40334071      19.45765952       0.00081193      -0.00325716       0.00765353      -2.10806635
I        0.85858999       9.36003857      19.69975438      -0.00108253      -0.00153699      -0.00621546      -2.11685431
I        0.12192911       6.01026116      22.73660572      -0.00017014      -0.00407920       0.00084733      -2.11685721
Cs      -2.94233277       3.10308641      22.71676526      -0.00079988      -0.00023964       0.00135517      -3.52545985
Pb      -6.22809752       6.22713994       0.00437920      -0.00131096      -0.00139771       0.00126357      -4.40812391
I       -9.36378388      11.65723430      -0.09288206      -0.00132191      -0.00023271      -0.00065504      -2.11248920
I       -5.41254882       9.34872810       0.18409719      -0.00197355      -0.00050287      -0.00028228      -2.11126572
I       -6.12855324       5.98794255       3.24112953      -0.00300326      -0.00182660       0.00123049      -2.11366392
Cs      -2.99937166       9.30983784       3.25037102       0.00304924      -0.00154181      -0.00272068      -3.53333619
Pb      -6.22880052       6.23742626       6.45836190      -0.00176494       0.00097792       0.00175842      -4.40110954
I       -9.37184669      13.30513287       6.55491796      -0.00030232      -0.00127030      -0.00093759      -2.10863276
I       -7.07589899       9.33371508       6.24617770      -0.00508135       0.00009699       0.00222533      -2.10076801
I       -6.33213202       6.40957910       9.74022978       0.00412041       0.00182489       0.00135033      -2.15982374
Cs      -3.25518336       9.14059069       9.77598092       0.02595268       0.01339626       0.00632511      -3.54123914
Pb      -6.24123242      12.46269515       0.00306135      -0.00158505      -0.00026738       0.00006567      -4.40153113
I       -3.11878154      13.28357021       0.10697047      -0.00067996      -0.00156064      -0.00018325      -2.11540933
I       -7.05320582      15.58897738      -0.16546503       0.00117412       0.00054317      -0.00042678      -2.11486110
I       -6.33900856      12.62651484       3.24308623      -0.00506593      -0.00170070       0.00056625      -2.12091303
Cs      -9.49857554       9.40909968       3.21157139      -0.00155488      -0.00032116      -0.00029450      -3.53092830
Pb      -6.26293885      12.43955157       6.46744852      -0.00091799      -0.00191271      -0.00000574      -4.42724958
I       -3.14512839      11.61681276       6.42548111      -0.00332520      -0.00522581       0.00140332      -2.09344474
I       -5.55086431      15.59149091       6.49208005      -0.00150309      -0.00064815       0.00131362      -2.02167043
I       -6.30610492      11.99686672       9.75163321       0.00582791      -0.00053988       0.00093900      -2.13184332
Cs      -9.27972946       9.25692913       9.74622592       0.00002724       0.00062611       0.00231795      -3.54270716
Pb      -6.19747378       6.24854277      13.00724599       0.00169717       0.00102033       0.00017056      -4.38941254
I       -9.21591265      11.67395639      13.00046663      -0.00377318      -0.00043115       0.00507100      -2.11852083
I       -5.35553288       9.39544487      13.24288808       0.00141004       0.00067994       0.00167577      -2.12268760
I       -6.09733163       6.02720278      16.23396391       0.00139879       0.00043640       0.00159016      -2.12561891
Cs      -2.99222473       9.22577245      16.36296881      -0.00683302      -0.00286728       0.00774138      -3.51656244
Pb      -6.19146993       6.24540948      19.48259122      -0.00029133      -0.00216360       0.00149290      -4.40128464
I       -9.32058275      13.30701598      19.52765789       0.00052136      -0.00177625      -0.00512149      -2.11546546
I       -6.99954889       9.37343807      19.26409545       0.00418888      -0.00009407      -0.00338673      -2.11906034
I       -6.26199073       6.47813086      22.71189917      -0.00012796      -0.00016612       0.00085400      -2.11913040
Cs      -3.19463947       9.41790179      22.72635677       0.00141319       0.00092569       0.00295496      -3.52285107
Pb      -6.30410179      12.45253153      12.95776995       0.00091319       0.00007862      -0.00017076      -4.19247286
I       -7.08351104      15.56390223      12.79025960      -0.00171772      -0.00096033      -0.00363090      -2.10921361
I       -6.16082815      12.76497144      16.17547779       0.01383189       0.00474639      -0.00014951      -2.14165532
Cs      -9.46255765       9.38682059      16.26907295      -0.00056743      -0.00464117       0.00101615      -3.51829622
Pb      -6.19611914      12.49303648      19.47372022       0.00172430       0.00098798      -0.00050374      -4.39378587
I       -3.07523838      11.68175853      19.42614445       0.00206211       0.00165627       0.00489395      -2.11258195
I       -5.39535376      15.60938554      19.70497623      -0.00064555       0.00096869       0.00720202      -2.11655689
I       -6.11553892      12.27556693      22.69587752      -0.00351608      -0.00082714      -0.00078167      -2.12305328
Cs      -9.17361225       9.33959932      22.70831984       0.00209908      -0.00031460      -0.00017295      -3.52160440
Pb       6.25049784       6.23185676       0.01475083       0.00064099       0.00075400       0.00042279      -4.40577792
I        3.11980541      11.63225947      -0.02707332       0.00097221       0.00072655      -0.00120771      -2.11286382
I        7.07623315       9.34555056       0.19670985       0.00061791       0.00047568       0.00021351      -2.10861738
I        6.29692946       6.08619662       3.25615428      -0.00160220       0.00223595       0.00100477      -2.12187418
Cs       9.50593785       9.35311278       3.24520320      -0.00024557       0.00305608       0.00041463      -3.52858329
Pb       6.26996296       6.24580143       6.47215137      -0.00215616       0.00097053       0.00125539      -4.43031560
I        3.09398049      13.26262240       6.71516609      -0.00175159      -0.00293778       0.00758036      -2.11936961
I        5.42218405       9.35780667       6.34831518      -0.00217332       0.00030535       0.00159220      -2.10803665
I        6.10552515       6.43776341       9.75786617      -0.00786607       0.00288631       0.00037597      -2.15382627
Cs       9.27114013       9.52510426       9.74656585       0.00006571       0.00552256       0.00078639      -3.49626736
Pb       6.24115880      12.46044015       0.03862679       0.00016913       0.00045223       0.00062171      -4.40364383
I        9.36349203      13.27902848       0.11832478      -0.00005611       0.00053024       0.00116421      -2.11201047
I        5.40779309      15.57137878      -0.14733500      -0.00279818      -0.00056268       0.00162049      -2.10796935
I        6.14609927      12.68174197       3.29134964      -0.00293528       0.00020721       0.00180607      -2.12853127
Cs       3.03261852       9.35211202       3.25997783       0.00135113      -0.00088653      -0.00265552      -3.53389478
Pb       6.22640387      12.46576969       6.53032492      -0.00263068       0.00031001       0.00153619      -4.40077238
I        9.35370919      11.67176692       6.44145927      -0.00157539       0.00184629      -0.00002688      -2.11044748
I        7.05499494      15.57843603       6.74518224      -0.00232458       0.00024241       0.00077965      -2.11334852
I        6.33458090      12.28139815       9.79012680      -0.00039040       0.00157885       0.00233641      -2.13105628
Cs       3.23397404       9.28137250       9.73883455      -0.01637059       0.00918779      -0.00114433      -3.54309730
Pb       6.29213730       6.20471119      13.04438050      -0.00185896      -0.00149313       0.00016077      -4.41923685
I        3.05299757      11.63099099      12.93938754      -0.00954318       0.00580044       0.00474961      -2.13175326
I        7.08991809       9.33574809      13.18128627      -0.00352380      -0.00164955       0.00122093      -2.11898478
I        6.24618575       5.99651636      16.25686960      -0.00730491      -0.00140062       0.00011035      -2.12225822
Cs       9.54438982       9.25360983      16.22108815       0.00379479      -0.00188829      -0.00319822      -3.52842796
Pb       6.27602777       6.24086919      19.50087883      -0.00053352       0.00142889       0.00067481      -4.40319575
I        3.16688051      13.30623980      19.58733236       0.00016275      -0.00008863      -0.00155011      -2.11150453
I        5.46201155       9.35530354      19.31705466      -0.00450648      -0.00001148      -0.00222060      -2.11163884
I        6.23370047       6.46979400      22.72843536       0.00509595       0.00291184       0.00004549      -2.11933413
Cs       9.28603728       9.38959400      22.70881107      -0.00085063      -0.00301819      -0.00208391      -3.52351262
Pb       6.30045527      12.45586312      13.03101444      -0.00445640      -0.00223419       0.00173107      -4.37925447
I        9.40333831      13.24787602      13.08229546      -0.00276434      -0.01123536      -0.00127202      -2.12736659
I        5.49093633      15.58077160      12.89662846       0.00325403      -0.00088128       0.00499604      -2.11389938
I        6.18701813      12.67688104      16.25544609      -0.00257477      -0.00282630       0.00073149      -2.11950442
Cs       3.03071142       9.33714268      16.27095398      -0.00750473       0.00419305      -0.00123031      -3.52889111
Pb       6.28690938      12.47134875      19.50496333       0.00058188      -0.00143794       0.00094859      -4.40565414
I        9.40291637      11.62853647      19.40454666      -0.00006841      -0.00317221      -0.00045175      -2.11064117
I        7.10585666      15.58914243      19.69441783       0.00033129      -0.00181331       0.00040006      -2.11055760
I        6.37384469      12.26306175      22.74535644      -0.00017949      -0.00025227       0.00042289      -2.12223652
Cs       3.30103951       9.33480385      22.74035929       0.00056533       0.00338711       0.00016975      -3.52298209
Pb       0.00227508      12.45465239       0.08336511       0.00031230       0.00004630      -0.00550640      -4.39725932
I       -3.12729892      17.89685235      -0.03837253      -0.00013864      -0.00042252       0.00457899      -2.11240638
I        0.80288386      15.58175878       0.26357456      -0.00225602       0.00089783       0.00254600      -2.11343326
I        0.11210894      12.17744979       3.35129957       0.00050016       0.00281695      -0.02169491      -2.12176811
Cs       3.19869026      15.48763890       3.31273272      -0.00448997      -0.00960323       0.00707454      -3.53303634
Pb      -0.03752315      12.42945614       6.55626960      -0.00035456      -0.00490092      -0.01218302      -4.40351696
I       -3.11304399      19.61601140       6.52789941      -0.00226974       0.00178303       0.00130615      -2.10186320
I       -0.69398139      15.57338658       6.07324293      -0.00476211       0.00036071       0.00553055      -2.03886618
I       -0.34553818      11.98725102       9.89222461       0.09824522      -0.00226499      -0.06124483      -2.10782154
Cs       3.31245073      15.72755511       9.72488194      -0.00274373      -0.00286434       0.00368336      -3.49627157
Pb      -0.00227455      18.70880777       0.02879763      -0.00042231       0.00061456       0.00114912      -4.40462405
I        3.12096844      19.51759151       0.08716465      -0.00063088       0.00007763      -0.00149969      -2.10991391
I       -0.82237106      21.82371449      -0.20648642      -0.00066012       0.00027209      -0.00226304      -2.10916364
I       -0.06101666      19.02311353       3.26455796      -0.00146028       0.00278699       0.00100352      -2.12137516
Cs      -3.30647417      15.64167336       3.23575622       0.00165992      -0.00103443       0.00327669      -3.53231701
Pb       0.00013503      18.69206375       6.45899373      -0.00201893      -0.00020013       0.00010569      -4.42620425
I        3.12536707      17.89499599       6.37581727      -0.00238592      -0.00114061       0.00108412      -2.10467954
I        0.80854126      21.82023528       6.71085430      -0.00189151      -0.00131092       0.00132713      -2.10436658
I        0.32648171      18.46101106       9.75412708      -0.00197375       0.00665596       0.00045178      -2.16050473
Pb       0.12978503      12.37388071      13.06844054      -0.01164954       0.00394853      -0.01001118      -4.18496627
I       -3.07948434      17.92032548      13.30171720      -0.00103430      -0.00152794       0.00765727      -2.02180078
I        0.89808505      15.51214372      13.13683965       0.00332313      -0.00512171      -0.00879605      -2.10717999
I        0.10159792      12.29560579      16.27279456       0.00061650       0.01492912      -0.00857242      -2.12254678
Cs       3.27189576      15.56912459      16.28225380      -0.00742844      -0.00431985      -0.00216487      -3.53141846
Pb       0.05021883      12.48338504      19.54769918       0.00189751      -0.00042591       0.00162218      -4.39973541
I       -3.08939548      19.51689196      19.50416005       0.00058913      -0.00119359      -0.00630681      -2.11677850
I       -0.77061946      15.59676158      19.32108320       0.00272897      -0.00131456       0.00711205      -2.11203283
I       -0.03570109      12.71870432      22.78162685       0.00384732      -0.00237318      -0.00140095      -2.12419781
Cs       3.03703810      15.63928953      22.75778044      -0.00500512      -0.00263945       0.00316443      -3.52424738
Pb       0.04488350      18.65186066      13.04786942      -0.00111855      -0.00057410      -0.00034720      -4.42238337
I        3.16189785      19.52443910      13.13605779       0.00040318      -0.00427226      -0.00008972      -2.11019877
I       -0.75605340      21.78623582      12.77657138       0.00281840      -0.00368200      -0.00221838      -2.12092175
I        0.05091911      18.91711907      16.25986651       0.00735682      -0.00647416       0.00066669      -2.12408791
Cs      -3.25558802      15.66623703      16.39854451       0.00195146       0.00349100       0.00925697      -3.44942537
Pb       0.04195152      18.71706603      19.50795928       0.00151091      -0.00063776       0.00156687      -4.40203884
I        3.15937269      17.89233590      19.46086252       0.00034228      -0.00296662       0.00262639      -2.11108124
I        0.84242731      21.83539246      19.72488173       0.00198419      -0.00120462       0.00207229      -2.11496684
I        0.10159977      18.47713073      22.74168134      -0.00370860      -0.00119391       0.00023079      -2.12153739
Cs      -2.95562504      15.57804231      22.75237176       0.00209952      -0.00250198       0.00447344      -3.52377767
C       -3.05332624      15.80892222       9.77358229       0.00488936       0.00130842       0.00311896      -9.19220733
N       -3.13563294      17.12970007       9.60801950      -0.00520792       0.01193061       0.00117172      -8.59774961
H       -2.28324643      17.68603607       9.56776386      -0.01126170       0.01139791      -0.00010389      -3.76802509
H       -4.03657488      17.60522324       9.56739463      -0.00635054      -0.00022613      -0.00440935      -3.79362057
N       -4.17098541      15.07480009       9.86190073       0.00469126       0.00459401      -0.00137117      -8.73493965
H       -5.06825482      15.49315064       9.64885689       0.00409331      -0.00563897      -0.00631752      -3.64794331
H       -4.14453088      14.06152416       9.88203064       0.01205131       0.00111275      -0.00159852      -3.67846435
N       -1.85804569      15.22795071       9.88590039      -0.00037735       0.01770697       0.00895513      -8.62814474
H       -1.73696599      14.21575264       9.93013322       0.01318873       0.01408554      -0.00366491      -3.79841050
H       -1.02084945      15.79560348       9.79850013      -0.00141137       0.02143288       0.00594702      -3.69477237
168
Lattice="12.468885909578862 12.45567328789723 0.03660330624248233 -12.500938529614729 12.48755672392219 -0.009239974293740398 0.04511830023029706 0.02729054207635215 25.947711814671685" Properties=species:S:1:pos:R:3:forces:R:3:energies:R:1 energy=-507.8890265819145 stress="-0.00034282837631515936 7.920773517813517e-05 -2.5513577255354416e-05 7.920773517813517e-05 -0.0006299040139612636 0.00015690270590379166 -2.5513577255354416e-05 0.00015690270590379166 5.7699288516970376e-05" free_energy=-507.8890265819145 pbc="T T T"
Pb       0.01583352       0.00331356      -0.00057714      -0.00103246      -0.00044643      -0.00036477      -4.40289252
I       -3.10880458       5.39719789      -0.04838813      -0.00013487       0.00038887       0.00477056      -2.11014440
I        0.84846108       3.11434354       0.23250408       0.00009310      -0.00072749       0.00305218      -2.11011155
I        0.09702885      -0.22159627       3.24594733      -0.00344959      -0.00049985       0.00009602      -2.12716349
Cs       3.29780505       3.07521470       3.28524454       0.00108666       0.00325028      -0.00001811      -3.53360836
Pb       0.02624368      -0.00455352       6.48507844      -0.00219297      -0.00223008      -0.00095128      -4.40223939
I       -3.10527718       6.99535886       6.46168893      -0.00344367       0.00282752       0.00672965      -2.11657481
I       -0.77870503       3.12302153       6.30846469      -0.00096285      -0.00104464       0.00360193      -2.11102170
I       -0.03089773       0.20852763       9.74747979       0.00229077      -0.00521821       0.00080882      -2.13865388
Cs       2.96481690       3.16008980       9.72523939       0.00261945      -0.00062424      -0.00281469      -3.52280731
Pb       0.01100019       6.22493027       0.02779297       0.00096409      -0.00171153       0.00378908      -4.40734366
I        3.12984558       7.05288718       0.05635906      -0.00015033       0.00079442      -0.00135765      -2.10904624
I       -0.81944907       9.34915472      -0.16035584       0.00230783      -0.00053827       0.00081991      -2.11334517
I       -0.02887889       6.46992319       3.27156870       0.00666066      -0.00046020       0.00264724      -2.11889793
Cs      -3.21822303       3.14650469       3.25598958      -0.00018959      -0.00057515       0.00290825      -3.52628354
Pb       0.03635990       6.24226171       6.50191406      -0.00377798       0.00108112       0.00492598      -4.39942629
I        3.14751561       5.44167765       6.44524835      -0.00286983       0.00213360       0.00202558      -2.10965807
I        0.81757079       9.37388395       6.75088975      -0.00512109      -0.00349807       0.00270761      -2.10409719
I        0.07374900       6.05080995       9.76974006      -0.00292912       0.00639429       0.00151323      -2.14462201
Cs      -2.93748573       3.07714602       9.73368182      -0.00024842      -0.00409867       0.00162678      -3.51354462
Pb       0.04501907      -0.04685568      12.99086174      -0.00091684       0.00075816       0.00070804      -4.37732578
I       -3.07107045       5.42150906      12.91246477      -0.00057876      -0.00691463       0.00028371      -2.11841915
I        0.89725997       3.04080251      13.18592473      -0.00476456      -0.00652836      -0.00634966      -2.11319017
I        0.13160479      -0.25541730      16.22005047      -0.00401738      -0.00599299      -0.00009325      -2.12559107
Cs       3.27607906       3.07208450      16.27123204       0.00512611       0.00080045      -0.00081013      -3.53545656
Pb       0.04798984       0.00708805      19.47377108       0.00025478      -0.00171308       0.00083066      -4.40251023
I       -3.06679061       7.04978460      19.59127221       0.00169846      -0.00670544       0.00874648      -2.11951186
I       -0.77308137       3.11632434      19.28113458      -0.00292865      -0.00325845       0.00587536      -2.10649003
I       -0.03316154       0.26935576      22.70772265       0.00154744      -0.00013380      -0.00028569      -2.12271706
Cs       3.04669745       3.15190481      22.74249191       0.00002292      -0.00627659       0.00176348      -3.52505497
Pb       0.07950416       6.16152669      13.03981049       0.00071174      -0.00627108       0.00414000      -4.40306156
I        3.19036435       7.00421681      13.06262153       0.00099110       0.00367594       0.00346162      -2.10339623
I       -0.67182391       9.25926107      13.20472503      -0.02083045      -0.00388927       0.02072072      -2.04459258
I        0.01440919       6.33737407      16.27786350       0.00297551      -0.02177793       0.00505660      -2.10867742
Cs      -3.20140534       3.15066636      16.23247894       0.00057351      -0.00586973      -0.00182083      -3.52323580
Pb       0.05715669       6.22645498      19.50953804       0.00197975      -0.00540904       0.00439656      -4.40691679
I        3.16843589       5.40216968      19.46729163       0.00176275      -0.00406704       0.00927251      -2.10765019
I        0.85880813       9.35931603      19.70589264      -0.00055143      -0.00242393      -0.00787835      -2.11670137
I        0.11568342       6.00819939      22.74587824      -0.00014132      -0.00353044       0.00265481      -2.11670633
Cs      -2.94378224       3.10484289      22.71793094      -0.00130476      -0.00010489       0.00206645      -3.52567766
Pb      -6.22862479       6.22594310       0.00133944      -0.00165662      -0.00172687       0.00142163      -4.40767235
I       -9.36535143      11.65909552      -0.09545498      -0.00147946       0.00006045      -0.00152257      -2.11298571
I       -5.41617618       9.34769347       0.18054382      -0.00288694      -0.00056523      -0.00149772      -2.11189406
I       -6.13566220       5.98400165       3.23671037      -0.00547861      -0.00300622       0.00137780      -2.11207031
Cs      -3.00860513       9.30673055       3.24286921       0.00323534      -0.00261860      -0.00563751      -3.53243274
Pb      -6.24090059       6.23268102       6.44194473      -0.00240973       0.00032752       0.00081635      -4.39410578
I       -9.37460830      13.30519231       6.54540740      -0.00330994       0.00044413      -0.00303335      -2.10827435
I       -7.07453077       9.33233640       6.24898889      -0.00688720      -0.00100735       0.00335843      -2.10267595
I       -6.37600701       6.37152258       9.73792307       0.00317829       0.00251079       0.00106869      -2.18253930
Cs      -3.38500998       8.97032585       9.76797155       0.00754352      -0.00936739       0.01279428      -3.54123370
Pb      -6.24427438      12.46134548       0.00079298      -0.00231884      -0.00014493       0.00000665      -4.40077975
I       -3.11681549      13.27957043       0.11153773      -0.00042351      -0.00290494       0.00050697      -2.11747269
I       -7.05134625      15.58970754      -0.16321728       0.00120626       0.00071322      -0.00041867      -2.11628481
I       -6.34374846      12.62351115       3.23845012      -0.00804428      -0.00171113      -0.00112388      -2.12052449
Cs      -9.49907189       9.41262831       3.20830294      -0.00047647       0.00014583      -0.00028527      -3.53240834
Pb      -6.26700883      12.44268603       6.46754761      -0.00230838      -0.00166151      -0.00253723      -4.42984022
I       -3.15087482      11.60843710       6.40175665      -0.01250908      -0.00777143      -0.01783706      -2.08452456
I       -5.56022238      15.59189886       6.48454235      -0.00069977      -0.00033333       0.00285993      -2.02202279
I       -6.34569123      12.02564676       9.74299189       0.01155667       0.00614585       0.00400609      -2.12330921
Cs      -9.28931419       9.26479196       9.74917912      -0.00201893       0.00195124       0.00299632      -3.54234032
Pb      -6.19987711       6.23986052      13.02053452       0.00345827       0.00006129       0.00069794      -4.38085574
I       -9.19251633      11.67151297      13.00631573      -0.01000745      -0.00203214       0.00739037      -2.11455700
I       -5.34052502       9.38442473      13.24906547       0.00323446       0.00240370       0.00161586      -2.13214533
I       -6.10055315       6.02374588      16.23614195       0.00248360       0.00037183       0.00040552      -2.12609284
Cs      -2.98182589       9.22086749      16.36697731      -0.00734037      -0.00361419       0.01318649      -3.51679624
Pb      -6.18996961       6.24539678      19.48669238      -0.00011495      -0.00283313       0.00001739      -4.40059312
I       -9.32093046      13.30413086      19.53051351       0.00143403      -0.00272270      -0.00525992      -2.11615679
I       -6.99917825       9.37215059      19.26580610       0.00469525      -0.00006836      -0.00334458      -2.11937814
I       -6.25525051       6.47654963      22.71197152      -0.00010471       0.00002974       0.00029597      -2.11980317
Cs      -3.19633297       9.41315362      22.72779244       0.00173699       0.00009372       0.00377721      -3.52256718
Pb      -6.27919078      12.44770763      12.94400663      -0.00661934       0.00006919       0.00431849      -4.19701878
I       -7.05953629      15.55622327      12.78477829       0.00025447      -0.00296912      -0.00223426      -2.10675581
I       -6.15411270      12.76227191      16.17410232       0.01633639       0.00349896      -0.00068920      -2.14066317
Cs      -9.46030662       9.38961149      16.27096897      -0.00056764      -0.00515664       0.00255557      -3.51780221
Pb      -6.19526136      12.49184655      19.47023484       0.00236554       0.00091349       0.00055079      -4.39384638
I       -3.07408072      11.68104242      19.43733019       0.00211147       0.00093095       0.00720876      -2.11154018
I       -5.39756334      15.60879730      19.70857487      -0.00070526       0.00087357       0.00668114      -2.11716064
I       -6.11561737      12.27606449      22.69481724      -0.00383423      -0.00081635      -0.00141812      -2.12184754
Cs      -9.17178707       9.34016613      22.70754839       0.00212965      -0.00018110      -0.00036752      -3.52166730
Pb       6.24871168       6.23437150       0.01189422       0.00000145       0.00137884       0.00041283      -4.40462880
I        3.11445512      11.62944126      -0.01352550      -0.00016155      -0.00004472       0.00304330      -2.11452850
I        7.07499330       9.34643193       0.19420754       0.00043244       0.00078444      -0.00052276      -2.10842203
I        6.28417522       6.09634621       3.25575410      -0.00324844       0.00326051       0.00115198      -2.12415082
Cs       9.50841530       9.36264997       3.23840975      -0.00043341       0.00512149      -0.00106075      -3.52917524
Pb       6.27526339       6.24613415       6.46861403      -0.00290621       0.00089291       0.00129802      -4.42599522
I        3.07916911      13.27031036       6.73460770      -0.00590294      -0.00575739       0.01970099      -2.11832289
I        5.42019030       9.35829787       6.34963958      -0.00484150       0.00040020       0.00462462      -2.11242099
I        6.10201291       6.43268814       9.75833664      -0.01234426       0.00441987       0.00040999      -2.15822081
Cs       9.27940834       9.53185590       9.73879674       0.00388517       0.00769385       0.00001005      -3.49379952
Pb       6.23953717      12.46030616       0.03906593       0.00001397       0.00028225       0.00088824      -4.40294337
I        9.36093971      13.27805714       0.11900067      -0.00071217       0.00065693       0.00116777      -2.11266054
I        5.40642969      15.57084399      -0.14667461      -0.00271417      -0.00088743       0.00036322      -2.10881206
I        6.14251036      12.67925847       3.29142940      -0.00349537       0.00010294       0.00251396      -2.12887106
Cs       3.03195653       9.33926420       3.27318138      -0.00445752      -0.00007322       0.00342907      -3.53180744
Pb       6.22134824      12.46808151       6.53107036      -0.00769913       0.00047215       0.00279324      -4.39949232
I        9.34972359      11.68058239       6.43543101      -0.00493519       0.00519065      -0.00090352      -2.11059487
I        7.04815952      15.57764349       6.74812137      -0.00234936      -0.00026051       0.00062878      -2.11478505
I        6.35839030      12.28779749       9.78658079       0.00053909       0.00177835       0.00286024      -2.12817891
Cs       3.29200736       9.20623563       9.73201853      -0.01869777       0.01008599       0.00621410      -3.50263536
Pb       6.30821116       6.19362781      13.04719276       0.00029961      -0.00226539       0.00040590      -4.41892361
I        3.08834061      11.59879463      12.85025550      -0.03481453       0.01789271      -0.01450530      -2.14513837
I        7.10833561       9.32789628      13.17165533      -0.00676316      -0.00228956       0.00013224      -2.12000603
I        6.24610244       5.99598908      16.25692727      -0.00450811      -0.00202014       0.00008034      -2.12395888
Cs       9.55040971       9.25279402      16.22200593       0.00403044      -0.00179751      -0.00349049      -3.52663964
Pb       6.27609454       6.24041664      19.50151239      -0.00023327       0.00216951       0.00078898      -4.40289584
I        3.16498508      13.30796548      19.58938977       0.00014166       0.00009962      -0.00034637      -2.11164415
I        5.46085384       9.35428313      19.31828191      -0.00665953       0.00017190      -0.00478913      -2.11131172
I        6.23911287       6.46897541      22.72819272       0.00511503       0.00361007      -0.00000276      -2.11943910
Cs       9.28446043       9.38818887      22.70501817      -0.00100566      -0.00258262      -0.00206822      -3.52361420
Pb       6.31629164      12.44653102      13.02724554      -0.00667841      -0.00286233       0.00085784      -4.37860714
I        9.42328512      13.25154191      13.08639980      -0.00733580      -0.01513034      -0.00013730      -2.12838984
I        5.50016510      15.57218449      12.91789294       0.00518124      -0.00078012       0.00780118      -2.11423427
I        6.18086947      12.66861915      16.25349585      -0.00544763      -0.00575441      -0.00010022      -2.11994615
Cs       3.03181414       9.32619123      16.25804994      -0.01132638       0.00711361      -0.00549710      -3.53254855
Pb       6.28530811      12.47014914      19.50358623      -0.00014324      -0.00220805       0.00067535      -4.40510832
I        9.40189822      11.62856691      19.40345331      -0.00129769      -0.00303086      -0.00071244      -2.11120182
I        7.10550015      15.58846696      19.69248852      -0.00010087      -0.00283397       0.00018734      -2.11095008
I        6.37111878      12.26447482      22.74571833      -0.00121147      -0.00072518      -0.00029704      -2.12290581
Cs       3.30635933       9.33553063      22.74270275       0.00072286       0.00397462      -0.00030225      -3.52243055
Pb       0.00146871      12.45627149       0.08174354       0.00042642      -0.00034115       0.00708919      -4.38209884
I       -3.12809308      17.90210013      -0.03839769      -0.00024255       0.00062330       0.00381774      -2.11414477
I        0.79768655      15.57989223       0.27635127      -0.00286519       0.00029378       0.00459117      -2.11528162
I        0.12306053      12.16070430       3.44928907       0.00087077       0.00211694      -0.00550788      -2.12625937
Cs       3.20281871      15.48673695       3.31057487      -0.00506337      -0.01265359       0.00783806      -3.53591235
Pb      -0.07853246      12.46369045       6.53618616      -0.01527957      -0.00653396       0.01824042      -4.32543366
I       -3.11291123      19.62688401       6.51511805      -0.00293789       0.00571944      -0.00030023      -2.10182569
I       -0.69228291      15.58199966       5.97759823      -0.00768695       0.00250595       0.00115759      -2.04457474
I       -1.23084349      11.97148575      10.31656657       0.19032481      -0.03479476      -0.18538777      -2.06985520
Cs       3.40647239      15.79436977       9.71437577       0.00667608       0.00257822       0.00470526      -3.48353652
Pb      -0.00241327      18.71217514       0.02905417      -0.00045227       0.00142888       0.00065696      -4.40402168
I        3.12108828      19.51676966       0.08215069      -0.00064011       0.00016117      -0.00244577      -2.11002718
I       -0.82054204      21.82514998      -0.21427943      -0.00064736       0.00048735      -0.00337121      -2.10915568
I       -0.05649630      19.04858607       3.26146990      -0.00131107       0.00797210      -0.00074248      -2.11740879
Cs      -3.35017591      15.65046155       3.21387308      -0.00452078      -0.00077249       0.00087838      -3.52907568
Pb      -0.00258828      18.70445049       6.44872396      -0.00298118      -0.00101720      -0.00239582      -4.42262984
I        3.11786096      17.90041438       6.35408193      -0.00278753      -0.00156108      -0.00113066      -2.10424270
I        0.80558060      21.82402145       6.70884911      -0.00168011      -0.00055103      -0.00015831      -2.10435588
I        0.34960610      18.47827465       9.74767147      -0.00148144       0.00984634      -0.00134643      -2.16363689
Pb       0.14239626      12.34443195      13.12084687      -0.02711566      -0.00195098      -0.01579271      -4.15449691
I       -3.06619853      17.89467865      13.29893074       0.00067179      -0.00429466       0.00814826      -2.02343476
I        0.91099160      15.50035972      13.13115104       0.00148022      -0.01187640      -0.01415321      -2.10457021
I        0.07910980      12.29080013      16.30942965       0.00901457       0.02008944       0.00206574      -2.12304235
Cs       3.27715471      15.58065215      16.28898872      -0.01134271      -0.00673628      -0.00253727      -3.52786090
Pb       0.05020067      12.48229903      19.56769071       0.00212514      -0.00084551       0.00615006      -4.39738330
I       -3.08910403      19.51470537      19.49943249       0.00088763      -0.00057547      -0.00554064      -2.11718000
I       -0.76931605      15.59399689      19.32351090       0.00225938      -0.00218094       0.01051638      -2.11180293
I       -0.03214352      12.72389117      22.81820476       0.00590515      -0.00414957       0.00911188      -2.12866978
Cs       3.03694509      15.64103695      22.76211882      -0.00534477      -0.00272688       0.00285353      -3.52368507
Pb       0.05334997      18.63546576      13.04777388      -0.00051404      -0.00039940      -0.00116612      -4.42249866
I        3.16646474      19.52403440      13.14186638       0.00137952      -0.00442328       0.00151526      -2.11005978
I       -0.75682418      21.76787553      12.77304669       0.00452924      -0.00262989      -0.00127460      -2.12068444
I        0.05789274      18.91441055      16.25958437       0.00737157      -0.00830650       0.00053799      -2.12440279
Cs      -3.26246828      15.66098791      16.40406760       0.00433452       0.00210530       0.00994499      -3.45026225
Pb       0.04168817      18.71519844      19.50858354       0.00176073      -0.00118129       0.00154192      -4.40179461
I        3.16039405      17.89514977      19.47073187       0.00069552      -0.00371915       0.00176432      -2.11114978
I        0.83991876      21.83343587      19.72932515       0.00227788      -0.00213486       0.00232885      -2.11488529
I        0.09630083      18.47178976      22.74260415      -0.00355147      -0.00122219       0.00034220      -2.12141069
Cs      -2.95910310      15.58159057      22.75413888       0.00211541      -0.00266462       0.00508107      -3.52371683
C       -3.02344041      15.86896965       9.72704476       0.01132863       0.00235865       0.00487329      -9.23378782
N       -3.14602829      17.18690184       9.55648120      -0.01446667       0.02351310      -0.00229786      -8.58595364
H       -2.30718415      17.76137275       9.50746145      -0.01734661       0.02256753      -0.00719188      -3.75640203
H       -4.05779222      17.64324830       9.55732476      -0.01040047      -0.00215662      -0.01043472      -3.80664503
N       -4.11675923      15.10134634       9.84395540       0.00889183       0.01859492       0.00051258      -8.73413272
H       -5.03336321      15.48913498       9.65947559       0.01328631      -0.00984985      -0.00438918      -3.64381967
H       -4.04982384      14.09018871       9.88142751       0.02150466       0.00292509      -0.00532909      -3.67689096
N       -1.81152133      15.32291407       9.78942373       0.00084039       0.03512487       0.01781533      -8.51593837
H       -1.69047961      14.31643752       9.95128565       0.02375914       0.02824396      -0.01092935      -3.87159871
H       -0.98897827      15.91580104       9.72909081       0.00211602       0.03884564       0.00007767      -3.71004541
168
Lattice="12.468885909578862 12.45567328789723 0.03660330624248233 -12.500938529614729 12.48755672392219 -0.009239974293740398 0.04511830023029706 0.02729054207635215 25.947711814671685" Properties=species:S:1:pos:R:3:forces:R:3:energies:R:1 energy=-507.7721520793213 stress="-0.0003995740651749889 8.233736554489972e-05 -4.1517979608900815e-05 8.233736554489972e-05 -0.0007158459039274231 0.00018696983392700792 -4.1517979608900815e-05 0.00018696983392700792 1.4663213081165913e-05" free_energy=-507.7721520793213 pbc="T T T"
Pb       0.01593609       0.00347132      -0.00097522      -0.00096396      -0.00031232      -0.00062938      -4.40277909
I       -3.10860077       5.39779173      -0.04809005      -0.00004586       0.00051027       0.00508665      -2.11029825
I        0.84823143       3.11477863       0.23185239       0.00001558      -0.00045630       0.00274727      -2.11025089
I        0.09707279      -0.22136525       3.24521960      -0.00376233      -0.00019723      -0.00036258      -2.12691480
Cs       3.29795088       3.07464981       3.28433305       0.00099022       0.00369537      -0.00045688      -3.53356401
Pb       0.02941884      -0.00201572       6.48408663      -0.00071937      -0.00116406      -0.00143169      -4.40187262
I       -3.10416017       6.98139610       6.43808974      -0.00231755       0.00094976       0.00273154      -2.11842173
I       -0.77519744       3.12553731       6.30709294       0.00038809       0.00049062       0.00295002      -2.11104351
I       -0.02781467       0.20707730       9.74544222       0.00391137      -0.00586292       0.00008503      -2.13940304
Cs       2.97288617       3.15050339       9.72672489       0.00568639      -0.00479298      -0.00282573      -3.52679831
Pb       0.01118063       6.22518392       0.02635669       0.00096979      -0.00138214       0.00340431      -4.40735690
I        3.13005457       7.05263259       0.05466533      -0.00006242       0.00073680      -0.00241991      -2.10911893
I       -0.81977775       9.35048979      -0.16198340       0.00186881       0.00005056       0.00022189      -2.11222526
I       -0.02379391       6.47264044       3.27010388       0.00832134       0.00166626       0.00292919      -2.11848224
Cs      -3.21814260       3.14689464       3.25551838       0.00016984      -0.00032226       0.00291219      -3.52707946
Pb       0.04077199       6.24239761       6.50015465      -0.00239192       0.00162183       0.00498784      -4.39669827
I        3.15056802       5.44325368       6.44743136      -0.00217735       0.00288357       0.00307030      -2.11054259
I        0.81755390       9.38573873       6.77059556      -0.00454562       0.00244861       0.01019572      -2.10902537
I        0.07572959       6.04393454       9.76580949      -0.00222501       0.00403301       0.00121810      -2.14470355
Cs      -2.93666951       3.07467255       9.73466593       0.00044182      -0.00547312       0.00139356      -3.51283128
Pb       0.06322004      -0.05145802      12.99111625       0.00665199      -0.00206625       0.00059956      -4.37878817
I       -3.06805917       5.42415171      12.91141253       0.00109113      -0.00724341      -0.00022093      -2.11922837
I        0.91117456       3.03033876      13.18736444      -0.00035797      -0.00971056      -0.00564484      -2.11247772
I        0.13482578      -0.25709379      16.22084555      -0.00356624      -0.00639925      -0.00000998      -2.12546272
Cs       3.28590301       3.06653393      16.26878877       0.00906186      -0.00119273      -0.00224229      -3.53526292
Pb       0.04902891       0.00731991      19.47342449       0.00057633      -0.00169480       0.00061450      -4.40237377
I       -3.06651428       7.05131252      19.58844070       0.00174447      -0.00605840       0.00701812      -2.11909060
I       -0.77267372       3.11703734      19.28072253      -0.00299616      -0.00322570       0.00573087      -2.10659909
I       -0.03290802       0.26942448      22.70750340       0.00184353       0.00017799      -0.00054480      -2.12276851
Cs       3.04706017       3.15163323      22.74164815       0.00017827      -0.00641465       0.00121702      -3.52499288
Pb       0.08886172       6.15239935      13.03778305       0.00405536      -0.01139226       0.00379240      -4.40672658
I        3.19999332       6.98941052      13.06261758       0.00404117      -0.00135103       0.00310980      -2.10015011
I       -0.60353729       9.24213668      13.17962008       0.00049211      -0.00615535       0.01609858      -2.03202688
I        0.01354627       6.33985108      16.27687779       0.00368517      -0.02389996       0.00461227      -2.10929605
Cs      -3.20105065       3.15110527      16.23202791       0.00089848      -0.00617033      -0.00210172      -3.52264235
Pb       0.05687312       6.22642014      19.50733499       0.00213115      -0.00534576       0.00358627      -4.40687109
I        3.16836731       5.40231931      19.46550251       0.00197799      -0.00427544       0.00844450      -2.10744534
I        0.85936982       9.36251492      19.69787167      -0.00022143      -0.00229015      -0.01045752      -2.11767713
I        0.11618388       6.00965537      22.74442542      -0.00009495      -0.00315862       0.00254062      -2.11702658
Cs      -2.94373436       3.10491548      22.71787097      -0.00114259       0.00005531       0.00187617      -3.52551081
Pb      -6.22855691       6.22620630       0.00053523      -0.00149054      -0.00158717       0.00075697      -4.40757718
I       -9.36507523      11.65939948      -0.09574758      -0.00128286       0.00029053      -0.00158766      -2.11326646
I       -5.41579708       9.34740174       0.18051855      -0.00257904      -0.00071948      -0.00142715      -2.11197843
I       -6.13912554       5.98277998       3.23487381      -0.00626028      -0.00377489       0.00080350      -2.11162619
Cs      -3.01313772       9.31144642       3.24569602       0.00148792      -0.00053938      -0.00325507      -3.53085853
Pb      -6.24426709       6.23084798       6.43936828      -0.00283969      -0.00035134       0.00017043      -4.39337640
I       -9.37057386      13.30333439       6.53601538      -0.00179346      -0.00025956      -0.00798325      -2.10694750
I       -7.06973009       9.33068924       6.24391195      -0.00511624      -0.00150934       0.00131945      -2.10252498
I       -6.37937558       6.36581807       9.73543484       0.00154766       0.00025759       0.00052528      -2.18374668
Cs      -3.37241840       8.92292037       9.74245829       0.01357007      -0.02414179       0.00472560      -3.53996190
Pb      -6.24394795      12.46087867      -0.00257605      -0.00215283      -0.00043789      -0.00158510      -4.40091734
I       -3.11491814      13.27904116       0.10792679       0.00037443      -0.00316641      -0.00115439      -2.11753267
I       -7.05106030      15.58979534      -0.16357199       0.00145798       0.00065946      -0.00065617      -2.11667729
I       -6.33729614      12.62293205       3.23404919      -0.00428871      -0.00221059      -0.00261747      -2.12118898
Cs      -9.49846698       9.41346662       3.20726649      -0.00009330       0.00053559      -0.00089816      -3.53274747
Pb      -6.26484726      12.44158588       6.47048261      -0.00184375      -0.00204099      -0.00192730      -4.43085709
I       -3.12860562      11.61253850       6.43518683      -0.00357806      -0.00596443      -0.00372054      -2.09645695
I       -5.56160446      15.58996883       6.48620118      -0.00089903      -0.00081048       0.00237441      -2.02097078
I       -6.40854862      12.03242799       9.72252353      -0.01405693       0.00908419      -0.00268051      -2.10261840
Cs      -9.29283644       9.26518006       9.75311260      -0.00443903       0.00128227       0.00451097      -3.54467480
Pb      -6.19840671       6.23861616      13.02002605       0.00484615      -0.00103853       0.00044795      -4.38187049
I       -9.16780041      11.68075061      13.01038331      -0.00255097      -0.00020800       0.00973007      -2.10866439
I       -5.32895920       9.36960571      13.23898853       0.00557100      -0.00332109      -0.00091853      -2.12762076
I       -6.10010971       6.02369275      16.23585756       0.00283444       0.00013103      -0.00007669      -2.12660940
Cs      -2.97150505       9.21520526      16.35269741      -0.00552577      -0.00471244       0.01098485      -3.51802450
Pb      -6.18929435       6.24638701      19.48622526       0.00015912      -0.00257220      -0.00059396      -4.40070048
I       -9.31990105      13.30375645      19.52931354       0.00193698      -0.00304083      -0.00614600      -2.11668109
I       -6.99950077       9.37205758      19.26506805       0.00435541      -0.00015974      -0.00354426      -2.11887471
I       -6.25506237       6.47689143      22.71139366       0.00023811       0.00021342      -0.00028231      -2.12010218
Cs      -3.19862075       9.41200899      22.72682022       0.00078289      -0.00083921       0.00339719      -3.52280844
Pb      -6.22798122      12.43759549      12.91331037       0.01036609      -0.00344132      -0.00629423      -4.24478117
I       -7.03625590      15.55451881      12.77667146       0.00752145      -0.00319047      -0.00425621      -2.10498620
I       -6.14061628      12.75964783      16.17094373       0.02182619       0.00177474      -0.00188313      -2.13905949
Cs      -9.45630735       9.39528095      16.26690036       0.00072780      -0.00317069       0.00154200      -3.51775580
Pb      -6.19337147      12.49177219      19.46010525       0.00351613       0.00073608      -0.00261169      -4.39487312
I       -3.07157334      11.67716269      19.43625351       0.00194392      -0.00072109       0.00727824      -2.10984190
I       -5.39814337      15.60923003      19.71015925      -0.00069895       0.00093959       0.00612341      -2.11762649
I       -6.11532093      12.27610211      22.69159851      -0.00405472      -0.00087761      -0.00290214      -2.12104611
Cs      -9.17111440       9.34104719      22.70692789       0.00244904       0.00015700      -0.00065504      -3.52177708
Pb       6.24858326       6.23438080       0.01093630      -0.00007921       0.00139571      -0.00013694      -4.40410881
I        3.11344693      11.62919752      -0.01623940      -0.00038100      -0.00033935       0.00230817      -2.11389068
I        7.07436117       9.34629735       0.19399195       0.00019333       0.00084600      -0.00073993      -2.10859785
I        6.28347462       6.09567917       3.25531720      -0.00401655       0.00329064       0.00095208      -2.12522058
Cs       9.50919503       9.36300522       3.23648277      -0.00008167       0.00589829      -0.00205175      -3.52955794
Pb       6.27983770       6.24341925       6.46711827      -0.00149606       0.00007300       0.00085684      -4.42463351
I        3.08069644      13.27625027       6.71847431      -0.00631961      -0.00352013       0.01294417      -2.11833669
I        5.42539996       9.35710285       6.34395582      -0.00379516       0.00002127       0.00419677      -2.11502826
I        6.11526601       6.42137436       9.75864653      -0.00808847       0.00097014       0.00027483      -2.16091950
Cs       9.28312486       9.53268830       9.73751195       0.00507879       0.00808230      -0.00021465      -3.49303126
Pb       6.23973385      12.46021862       0.03764669      -0.00003008       0.00021543       0.00051854      -4.40302724
I        9.36092480      13.27779772       0.11820749      -0.00087193       0.00063950       0.00078553      -2.11276013
I        5.40699864      15.57086478      -0.14835990      -0.00235878      -0.00098985      -0.00086575      -2.10944021
I        6.14418511      12.67885083       3.28958306      -0.00262652      -0.00005026       0.00210463      -2.12818734
Cs       3.03736921       9.33334429       3.27059030      -0.00211483      -0.00264630       0.00294298      -3.53054734
Pb       6.22961833      12.46709052       6.52849359      -0.00496831      -0.00000445       0.00206402      -4.39863655
I        9.35294562      11.68064903       6.43359290      -0.00396462       0.00555346      -0.00125197      -2.11121174
I        7.04745595      15.57615208       6.74784566      -0.00173148      -0.00094187       0.00055697      -2.11397837
I        6.36423388      12.28911236       9.78240227       0.00165611       0.00183557       0.00047816      -2.12786462
Cs       3.34688978       9.17067366       9.72593706      -0.00104419       0.00063001       0.00490320      -3.49400899
Pb       6.31514596       6.18703007      13.04864626       0.00212711      -0.00383625       0.00041872      -4.42081735
I        3.15510636      11.56873582      12.85137154      -0.01592929       0.00763469      -0.01152410      -2.14304519
I        7.11877366       9.32500407      13.16823662      -0.00322608      -0.00424802      -0.00053630      -2.11768055
I        6.24812216       5.99613821      16.25813787      -0.00310334      -0.00259057       0.00008730      -2.12484492
Cs       9.55221778       9.25400354      16.22382282       0.00413828      -0.00122546      -0.00361724      -3.52613686
Pb       6.27617553       6.24043122      19.50209314      -0.00004980       0.00212410       0.00054157      -4.40266067
I        3.16172772      13.30723232      19.57949211      -0.00001017       0.00004474      -0.00454303      -2.11303886
I        5.46087960       9.35440909      19.31795621      -0.00655099       0.00013990      -0.00537724      -2.11144520
I        6.23871847       6.46916808      22.72849293       0.00505369       0.00371825      -0.00041170      -2.11953976
Cs       9.28447811       9.38867273      22.70512554      -0.00100013      -0.00234387      -0.00214645      -3.52355231
Pb       6.32977719      12.44538004      13.02696702      -0.00018543      -0.00271946       0.00086879      -4.38583686
I        9.44617973      13.25489224      13.08770519       0.00191188      -0.01253374      -0.00003258      -2.12642807
I        5.50015715      15.56826831      12.91825115       0.00547589      -0.00109624       0.00781046      -2.11440930
I        6.18675559      12.66960061      16.25405881      -0.00284337      -0.00536854       0.00067661      -2.11860391
Cs       3.03515022       9.32014997      16.25428095      -0.00985912       0.00472187      -0.00674789      -3.53226188
Pb       6.28600315      12.47014967      19.50158104      -0.00031706      -0.00212369      -0.00037619      -4.40495262
I        9.40204496      11.62940050      19.40398328      -0.00128578      -0.00258470      -0.00041334      -2.11146620
I        7.10482460      15.58867439      19.69274592      -0.00033525      -0.00275561       0.00008596      -2.11111926
I        6.37005105      12.26486500      22.74490385      -0.00181846      -0.00069200      -0.00122427      -2.12291678
Cs       3.30634996       9.33420801      22.74025680       0.00070803       0.00342116      -0.00123892      -3.52222597
Pb       0.00144139      12.45742035       0.05661537       0.00060961      -0.00018165      -0.00101909      -4.37940808
I       -3.12802500      17.90278319      -0.03928345      -0.00022871       0.00118078       0.00330010      -2.11468005
I        0.79720123      15.57867652       0.27265724      -0.00301897      -0.00023469       0.00348817      -2.11544026
I        0.12583856      12.14868831       3.42733889       0.00164568      -0.00358008      -0.01125293      -2.13061667
Cs       3.20883234      15.49371125       3.30332886      -0.00247391      -0.00944905       0.00489414      -3.53710683
Pb      -0.05395151      12.48650314       6.45602360      -0.00765427       0.00093223      -0.00441323      -4.24784870
I       -3.11051969      19.62883938       6.51120358      -0.00207577       0.00663536      -0.00197669      -2.10112825
I       -0.68380323      15.58252141       5.93940952      -0.00477000       0.00110890      -0.01268340      -2.04655996
I       -1.99023694      12.13122442      10.90720125      -0.03833751       0.01115042      -0.00529918      -2.02602191
Cs       3.41113385      15.79348793       9.71526664       0.00777831       0.00126090       0.00523334      -3.48077437
Pb      -0.00224430      18.71252464       0.02845360      -0.00022517       0.00163210       0.00013987      -4.40383234
I        3.12100600      19.51673214       0.08146423      -0.00039974       0.00018151      -0.00304326      -2.11019011
I       -0.82032285      21.82507060      -0.21474471      -0.00043088       0.00059394      -0.00394918      -2.10929141
I       -0.05520186      19.05230216       3.26132727      -0.00013560       0.01037517      -0.00098307      -2.11610312
Cs      -3.36224280      15.65291088       3.20689972      -0.00977328      -0.00001227      -0.00231345      -3.52681815
Pb      -0.00003019      18.71232800       6.44703245      -0.00186043       0.00137605      -0.00332772      -4.41981233
I        3.11687637      17.89944972       6.35231725      -0.00231920      -0.00180117      -0.00093824      -2.10348715
I        0.80736815      21.82467281       6.70673772      -0.00083345      -0.00043739      -0.00094690      -2.10537507
I        0.36102629      18.48660961       9.74843791       0.00301040       0.01148177      -0.00097740      -2.16306291
Pb       0.17368311      12.34498249      13.14882328      -0.01863880      -0.00440978      -0.00620361      -4.11860180
I       -3.05932556      17.88581628      13.29293927       0.00301562      -0.00695839       0.00630368      -2.02390155
I        0.90970217      15.49918225      13.13784218       0.00109549      -0.01228792      -0.01176806      -2.10715372
I        0.02643395      12.29292030      16.27366335      -0.00913936       0.02118871      -0.00618532      -2.13603157
Cs       3.28514635      15.58793397      16.28870884      -0.00872046      -0.00436664      -0.00264713      -3.52450194
Pb       0.04766843      12.48304131      19.56535570       0.00126253      -0.00061991       0.00714791      -4.39050160
I       -3.08892424      19.51498997      19.50081622       0.00093956      -0.00033298      -0.00532536      -2.11726130
I       -0.76865221      15.59265613      19.32226160       0.00195598      -0.00185333       0.00911937      -2.11183955
I       -0.03236319      12.72379852      22.80056015       0.00625208      -0.00410678       0.00348725      -2.13202449
Cs       3.03896345      15.64167817      22.75978006      -0.00462313      -0.00276789       0.00143647      -3.52344536
Pb       0.05565974      18.64052172      13.04844349       0.00045324       0.00091418      -0.00113755      -4.42199989
I        3.16892013      19.52428579      13.14486246       0.00197240      -0.00470252       0.00254770      -2.11053533
I       -0.75723532      21.76473650      12.77358750       0.00507995      -0.00278285      -0.00136653      -2.12180535
I        0.05846931      18.91652762      16.26019357       0.00776217      -0.00766064       0.00009383      -2.12362496
Cs      -3.26523405      15.65970074      16.40322503       0.00376339       0.00093735       0.00894544      -3.45399352
Pb       0.04207975      18.71647272      19.50857749       0.00179891      -0.00136321       0.00120593      -4.40189512
I        3.16057009      17.89591382      19.47175828       0.00099096      -0.00355721       0.00141533      -2.11131896
I        0.84037167      21.83353208      19.72915006       0.00223565      -0.00214975       0.00218837      -2.11458407
I        0.09620859      18.47167594      22.74256286      -0.00346344      -0.00122847       0.00018575      -2.12114383
Cs      -2.96102738      15.58309436      22.75338445       0.00163239      -0.00193163       0.00448599      -3.52353108
C       -3.00326488      15.86774215       9.69765145       0.03936624       0.01522282      -0.00690140      -9.26486197
N       -3.13328742      17.18677894       9.53486235      -0.02792398       0.01318014      -0.01012908      -8.57968260
H       -2.29910829      17.76745181       9.49044690      -0.00524607       0.02718792      -0.01418373      -3.75615073
H       -4.04711886      17.63858162       9.56562904       0.00463303      -0.00049933      -0.01341388      -3.80568631
N       -4.09037664      15.09773098       9.82340897      -0.00484651       0.01978198      -0.00795547      -8.71008544
H       -5.01364191      15.48448179       9.67382667       0.02689747      -0.01068667       0.00005787      -3.63310202
H       -4.01022950      14.08843535       9.91176640       0.02708166       0.00894830       0.00823343      -3.72825211
N       -1.78503550      15.32277658       9.71258225      -0.01547840       0.02288029       0.00096773      -8.51147243
H       -1.68128307      14.33548298       9.97393378       0.01815265       0.04190408      -0.00159897      -3.85195696
H       -0.96846459      15.92644483       9.69496227       0.01180113       0.03869507      -0.00472331      -3.70564113
168
Lattice="12.468885909578862 12.45567328789723 0.03660330624248233 -12.500938529614729 12.48755672392219 -0.009239974293740398 0.04511830023029706 0.02729054207635215 25.947711814671685" Properties=species:S:1:pos:R:3:forces:R:3:energies:R:1 energy=-507.8998655403125 stress="-0.0004184485340717584 7.54008360661021e-05 -4.3721732529540536e-05 7.54008360661021e-05 -0.0006358562542872777 0.00019976900021734942 -4.3721732529540536e-05 0.00019976900021734942 0.00012738939881892593" free_energy=-507.8998655403125 pbc="T T T"
Pb       0.01582275       0.00423071      -0.00173728      -0.00074206       0.00001021      -0.00117279      -4.40271998
I       -3.10819330       5.39672200      -0.04774161       0.00015290      -0.00001201       0.00358782      -2.10973012
I        0.84804669       3.11609246       0.23218929      -0.00006610      -0.00001907       0.00208831      -2.11055901
I        0.09616019      -0.22098383       3.24398999      -0.00403922      -0.00018662      -0.00081092      -2.12668625
Cs       3.29802723       3.07749485       3.28574711       0.00122683       0.00446826      -0.00109165      -3.53348465
Pb       0.03021372       0.00088318       6.48406686       0.00013217      -0.00038145      -0.00160508      -4.40156493
I       -3.10178301       7.01438407       6.48787425      -0.00154731       0.00596022       0.01011991      -2.11668103
I       -0.77805397       3.12961762       6.30394371       0.00029896       0.00102404       0.00224101      -2.11175883
I       -0.02606251       0.20787720       9.74185148       0.00507418      -0.00491550       0.00010060      -2.13907454
Cs       2.97880762       3.14248875       9.73375756       0.00750754      -0.00729267      -0.00199063      -3.52919604
Pb       0.01003938       6.22629791       0.02297720       0.00032697      -0.00078669       0.00252824      -4.40675579
I        3.12911544       7.05322789       0.05132233      -0.00037365       0.00055218      -0.00293035      -2.10957908
I       -0.82242929       9.35135624      -0.16707857       0.00068202       0.00015966      -0.00064567      -2.11029820
I       -0.03334836       6.47761011       3.26799841       0.00571425       0.00252108       0.00238020      -2.12137842
Cs      -3.21934126       3.14555965       3.25521828       0.00030877      -0.00079540       0.00217855      -3.52502724
Pb       0.03607097       6.24591561       6.50165207      -0.00224289       0.00275698       0.00517359      -4.39874042
I        3.14847717       5.44858537       6.45141809      -0.00129856       0.00271867       0.00279300      -2.10986461
I        0.81651626       9.39532033       6.77897117      -0.00384156       0.00413914       0.01275001      -2.10938806
I        0.08335922       6.02418292       9.75967221      -0.00034174      -0.00143637      -0.00081643      -2.13839063
Cs      -2.93734106       3.08009971       9.73926436       0.00144268      -0.00414276       0.00201654      -3.51454572
Pb       0.08921444      -0.05808180      12.99091653       0.01339779       0.00062835       0.00065837      -4.38570967
I       -3.06346907       5.42887618      12.91589952       0.00135547      -0.00757941       0.00092403      -2.11597244
I        0.91757097       3.02976853      13.19200699       0.00056417      -0.00735400      -0.00393552      -2.11283924
I        0.13615507      -0.25842100      16.22319687      -0.00384828      -0.00713786      -0.00072726      -2.12461208
Cs       3.29636684       3.05885464      16.26081380       0.01445468      -0.00377256      -0.00350342      -3.53274552
Pb       0.05064733       0.00786378      19.47180533       0.00120466      -0.00116050       0.00020569      -4.40229523
I       -3.06629227       7.06303563      19.56805963       0.00194159      -0.00330139       0.00160741      -2.11641854
I       -0.77143373       3.12061427      19.27297914      -0.00230840      -0.00229661       0.00270275      -2.10809928
I       -0.03314309       0.27300018      22.70688526       0.00252742       0.00129757      -0.00081590      -2.12296511
Cs       3.04710188       3.15202564      22.74067761       0.00012481      -0.00588641      -0.00030371      -3.52419188
Pb       0.09410091       6.14915225      13.02406126       0.00400670      -0.00739228       0.00072282      -4.41030774
I        3.20610904       6.97871976      13.05936347       0.00601527      -0.00311163       0.00256930      -2.09972310
I       -0.58386449       9.24656662      13.01391889       0.00075495      -0.00915468      -0.01372550      -2.05132186
I        0.00918708       6.38336200      16.26276434       0.00362597      -0.01293104       0.00188997      -2.11663704
Cs      -3.20185392       3.15192766      16.22751423       0.00106198      -0.00660296      -0.00255486      -3.52229168
Pb       0.05391193       6.23060792      19.49787860       0.00164042      -0.00450219       0.00178910      -4.40584692
I        3.16675427       5.40253537      19.46005773       0.00161083      -0.00365571       0.00536198      -2.10759498
I        0.86263746       9.36736408      19.68187242       0.00096598      -0.00075328      -0.01127055      -2.11837368
I        0.11310019       6.01383369      22.73729923      -0.00071373      -0.00219294       0.00089297      -2.11870493
Cs      -2.94427854       3.10651128      22.71702017      -0.00048081       0.00015031       0.00109910      -3.52472438
Pb      -6.22716297       6.22670903       0.00210404      -0.00071202      -0.00115555       0.00032944      -4.40716966
I       -9.36475385      11.65993948      -0.09750123      -0.00087487       0.00045306      -0.00223960      -2.11361678
I       -5.41346967       9.34706613       0.18101966      -0.00153463      -0.00050963      -0.00152320      -2.11126008
I       -6.12743649       5.98655976       3.23822863      -0.00283648      -0.00281885       0.00027700      -2.11381632
Cs      -3.01958244       9.30680069       3.25769876      -0.00049559       0.00114556       0.00012991      -3.53011957
Pb      -6.23387504       6.23920654       6.44881620       0.00054206       0.00121175       0.00153041      -4.39713166
I       -9.36883995      13.30426028       6.52705637      -0.00066006      -0.00014356      -0.01042662      -2.10616508
I       -7.06846169       9.33269978       6.23362011      -0.00348124      -0.00077651      -0.00070893      -2.09918363
I       -6.34239673       6.39932879       9.73703159       0.00539336       0.00316369       0.00017383      -2.17430065
Cs      -3.29930493       9.06595577       9.77783700       0.02290802       0.01561614       0.01731678      -3.54649578
Pb      -6.24290110      12.45959399      -0.00828475      -0.00149791      -0.00065453      -0.00215787      -4.40122911
I       -3.11269600      13.27843520       0.09944424       0.00074468      -0.00274053      -0.00296019      -2.11749284
I       -7.05046656      15.58969869      -0.16319598       0.00144963       0.00048802      -0.00107198      -2.11689592
I       -6.32988916      12.62073732       3.22920428      -0.00071224      -0.00286646      -0.00290439      -2.12111276
Cs      -9.49881829       9.41356581       3.20504102      -0.00066560       0.00105582      -0.00167886      -3.53308475
Pb      -6.26852274      12.43941669       6.47009386      -0.00167818      -0.00198174      -0.00226941      -4.42906289
I       -3.10991491      11.62743043       6.47679409       0.00043644      -0.00359593       0.00955074      -2.11074847
I       -5.56962794      15.59133413       6.47487633      -0.00392183       0.00019956      -0.00338013      -2.02054664
I       -6.45715466      12.02035481       9.70298710      -0.02153005       0.00486180      -0.00798143      -2.09407074
Cs      -9.30170103       9.25931813       9.76193444      -0.00637181       0.00054855       0.00648438      -3.54742887
Pb      -6.19861375       6.22603552      13.01638312       0.00705190      -0.00134279      -0.00053902      -4.39151275
I       -9.17024899      11.69318459      13.01197870      -0.00240352      -0.00021272       0.01001038      -2.10243581
I       -5.37431242       9.33548054      13.25566987      -0.00080026      -0.01261388       0.00094768      -2.10904316
I       -6.10248731       6.01601866      16.23718617       0.00121241      -0.00317546       0.00042354      -2.12314196
Cs      -2.94998092       9.23580376      16.29891573       0.00017151      -0.00362865       0.00339866      -3.51834689
Pb      -6.18670665       6.24809069      19.48224457       0.00067109      -0.00184621      -0.00083693      -4.40257880
I       -9.31721343      13.30411791      19.52570006       0.00268845      -0.00311356      -0.00784560      -2.11732195
I       -7.00145573       9.37218006      19.26337302       0.00335374      -0.00007123      -0.00444857      -2.11751333
I       -6.25047977       6.47644513      22.71204657       0.00160909       0.00061243      -0.00055191      -2.12087404
Cs      -3.20035618       9.41073906      22.71973140       0.00014193      -0.00201579       0.00222599      -3.52360806
Pb      -6.14929288      12.42221831      12.88600540       0.01992687      -0.00548303      -0.00920678      -4.34476304
I       -7.00806464      15.55257143      12.77366544       0.01184446      -0.00254196      -0.00437103      -2.10173093
I       -6.11084334      12.75521178      16.16973180       0.02887774       0.00052259      -0.00139108      -2.14098937
Cs      -9.45012442       9.40262923      16.25565130       0.00210621      -0.00232597      -0.00091991      -3.52003030
Pb      -6.18934346      12.49148290      19.44697045       0.00425489       0.00008837      -0.00424216      -4.39627717
I       -3.06683139      11.67166111      19.42134415       0.00340878      -0.00311074       0.00687976      -2.10829390
I       -5.39383112      15.60872060      19.70458844      -0.00049404       0.00058168       0.00513829      -2.11663483
I       -6.11149388      12.27638572      22.68667613      -0.00381487      -0.00101641      -0.00342322      -2.12101547
Cs      -9.16848834       9.34102928      22.70498988       0.00293790       0.00019792      -0.00137039      -3.52134530
Pb       6.24793875       6.23496817       0.00896716      -0.00036652       0.00137175      -0.00068876      -4.40392895
I        3.11273353      11.62811365      -0.02208348      -0.00033225      -0.00070209       0.00084781      -2.11309732
I        7.07413413       9.34670471       0.19279479       0.00001636       0.00072475      -0.00113587      -2.10852648
I        6.27915045       6.09909030       3.25268998      -0.00478777       0.00453390      -0.00021811      -2.12581573
Cs       9.50966904       9.36463036       3.23441840       0.00024335       0.00559393      -0.00253628      -3.52958076
Pb       6.27973652       6.24483453       6.46656917      -0.00087639       0.00147706      -0.00017689      -4.42635849
I        3.08446401      13.28520959       6.71005315      -0.00482017      -0.00052466       0.00887541      -2.12079907
I        5.42499154       9.35950599       6.34772306      -0.00399901       0.00106802       0.00518107      -2.11564978
I        6.14789867       6.40822007       9.75543169      -0.00087871      -0.00119093       0.00002994      -2.15963199
Cs       9.28498105       9.52992079       9.73654586       0.00432662       0.00696153      -0.00177181      -3.49385875
Pb       6.23938606      12.46037884       0.03629932      -0.00025537       0.00036620       0.00046745      -4.40338037
I        9.36058455      13.27822136       0.11817228      -0.00067162       0.00031982      -0.00008769      -2.11269326
I        5.40621506      15.57130513      -0.14832310      -0.00193663      -0.00057273      -0.00080208      -2.11004184
I        6.14387573      12.67851888       3.28875027      -0.00217180       0.00014420       0.00166191      -2.12786704
Cs       3.04127806       9.32670189       3.26966386      -0.00046596      -0.00388145       0.00245057      -3.52982816
Pb       6.23721932      12.46690240       6.52863836      -0.00349824       0.00033104       0.00132255      -4.39798922
I        9.35503885      11.67987798       6.43148551      -0.00290518       0.00461840      -0.00126349      -2.11201523
I        7.04953339      15.57934546       6.75031678      -0.00104206      -0.00052553       0.00216190      -2.11560598
I        6.36679296      12.28984147       9.77868511       0.00091684       0.00065324       0.00148367      -2.12721279
Cs       3.35610722       9.16677797       9.73774381      -0.00075936       0.00161171       0.00821328      -3.49811118
Pb       6.32178909       6.17616837      13.04491889       0.00304836      -0.00577437      -0.00068500      -4.42629368
I        3.21276963      11.54734493      12.89909998      -0.00166526      -0.00270555       0.00352078      -2.13064059
I        7.13365234       9.31639371      13.16573330       0.00037933      -0.00383459      -0.00031898      -2.11503032
I        6.25247477       5.99311081      16.25780110      -0.00131366      -0.00241081      -0.00089082      -2.12438572
Cs       9.55635431       9.25496569      16.22437171       0.00477419      -0.00008895      -0.00272092      -3.52565805
Pb       6.27735965       6.23779321      19.49948117       0.00021437       0.00160221      -0.00017804      -4.40318408
I        3.15927856      13.30686752      19.56596250      -0.00085896      -0.00040773      -0.00908384      -2.11495085
I        5.46315529       9.35363108      19.31887325      -0.00498216       0.00025782      -0.00489035      -2.11173907
I        6.23914257       6.46801880      22.72707058       0.00418877       0.00295934      -0.00123839      -2.11960451
Cs       9.28360496       9.38759433      22.70348139      -0.00101620      -0.00201760      -0.00215536      -3.52377532
Pb       6.34207606      12.43719243      13.02853689       0.00507608      -0.00294468       0.00130425      -4.39506418
I        9.46395470      13.25600845      13.08839256       0.00766577      -0.00850277      -0.00054435      -2.12162085
I        5.49450147      15.55334980      12.91570498       0.00544858      -0.00533002       0.00654319      -2.11607141
I        6.19752111      12.66925936      16.25797223       0.00219160      -0.00461336      -0.00066488      -2.11598665
Cs       3.05122168       9.31321366      16.25267209      -0.00553039       0.00145223      -0.00589961      -3.52795487
Pb       6.28809015      12.47019859      19.49901965       0.00069321      -0.00161991      -0.00012893      -4.40539683
I        9.40309315      11.62969637      19.40486434      -0.00035308      -0.00143267       0.00054671      -2.11136306
I        7.10571693      15.58891007      19.69322309      -0.00005718      -0.00234988       0.00050789      -2.11097628
I        6.36837576      12.26581265      22.74475537      -0.00220025      -0.00023785      -0.00134343      -2.12249619
Cs       3.30419200       9.33377432      22.73443474       0.00045796       0.00260873      -0.00173828      -3.52220905
Pb       0.00162464      12.45669326       0.03095787       0.00075556      -0.00029778      -0.00721871      -4.37726027
I       -3.12823458      17.90389391      -0.04082540      -0.00017572       0.00170262       0.00271816      -2.11517138
I        0.79612507      15.57703047       0.26631464      -0.00256619      -0.00040888       0.00216880      -2.11583612
I        0.12855254      12.13738236       3.39262896       0.00192481      -0.00665653      -0.01486740      -2.13556472
Cs       3.21158552      15.49949253       3.29952512      -0.00133707      -0.00586279       0.00339168      -3.53705440
Pb      -0.02638359      12.49817333       6.40074592      -0.00155651       0.00339628      -0.01132378      -4.21035629
I       -3.10851751      19.62690337       6.50608619      -0.00108263       0.00604480      -0.00348192      -2.10016392
I       -0.67602958      15.58336180       5.90428123      -0.00172182       0.00091240      -0.02011468      -2.04854453
I       -2.62715656      12.40419594      11.69989764      -0.13233411       0.02699610       0.12476943      -2.04008612
Cs       3.42810912      15.80585116       9.71270239       0.01141134       0.00402533       0.00227280      -3.47898054
Pb      -0.00223022      18.71285069       0.02625713       0.00013777       0.00130760      -0.00014747      -4.40327983
I        3.12148815      19.51618812       0.07993585      -0.00013252      -0.00003817      -0.00323756      -2.11084199
I       -0.81977166      21.82539099      -0.21822378       0.00005677       0.00047800      -0.00427829      -2.10943133
I       -0.05226688      19.05889552       3.25987632       0.00130427       0.01066055      -0.00095211      -2.11545551
Cs      -3.37487749      15.65465743       3.19721119      -0.01096812       0.00006883      -0.00440369      -3.52478457
Pb       0.00399827      18.71479306       6.44507583      -0.00087081       0.00101455      -0.00335218      -4.41737462
I        3.12266192      17.90545532       6.35420768      -0.00096146       0.00028476      -0.00172521      -2.10411752
I        0.80633063      21.82547416       6.70764339      -0.00106974      -0.00028385      -0.00001943      -2.10612297
I        0.37238761      18.46682956       9.74794628       0.00553125       0.00358070      -0.00031776      -2.16131474
Pb       0.17972919      12.35708870      13.12793749      -0.01167418      -0.00252644      -0.00506026      -4.13695256
I       -3.05431605      17.87526921      13.27633735       0.00300395      -0.00880266       0.00237396      -2.02416408
I        0.90215600      15.50051205      13.14101520       0.00123638      -0.01311282      -0.00733254      -2.10709738
I       -0.01407642      12.28873894      16.18852439      -0.02436615       0.01460937      -0.01791224      -2.15402796
Cs       3.29077361      15.59234806      16.28466701      -0.00574241      -0.00229559      -0.00320697      -3.52372579
Pb       0.04599845      12.48416550      19.54758732       0.00045274      -0.00092962       0.00035684      -4.37834833
I       -3.08846761      19.51576569      19.50081676       0.00093408      -0.00039864      -0.00472809      -2.11634364
I       -0.77053312      15.59082072      19.30885625       0.00172243      -0.00270435       0.00581867      -2.11274606
I       -0.03265472      12.71807105      22.76454996       0.00631380      -0.00470099      -0.00412533      -2.13601309
Cs       3.04019593      15.64104159      22.75645030      -0.00337922      -0.00317206       0.00000544      -3.52279496
Pb       0.05648421      18.64602911      13.04494696       0.00198781      -0.00098582      -0.00172369      -4.42376496
I        3.16775828      19.51342221      13.14296711       0.00294366      -0.00653880       0.00219527      -2.11021677
I       -0.75591453      21.76303166      12.76995379       0.00423278      -0.00371201      -0.00336557      -2.12381421
I        0.05945835      18.91804866      16.25800535       0.00714558      -0.00581124      -0.00023426      -2.12216641
Cs      -3.26466449      15.63767540      16.37943486       0.00479559       0.00062642       0.00579189      -3.45879473
Pb       0.04253331      18.71662336      19.50532026       0.00213549      -0.00043924       0.00032102      -4.40233993
I        3.16120859      17.89553704      19.47275903       0.00111209      -0.00285232       0.00146533      -2.11110818
I        0.83989190      21.83341286      19.72920180       0.00232652      -0.00131820       0.00160868      -2.11400396
I        0.09391391      18.46769406      22.74053648      -0.00313398      -0.00133465      -0.00042558      -2.12138654
Cs      -2.96174484      15.58392239      22.74919175       0.00154010      -0.00120144       0.00356545      -3.52336208
C       -3.00132713      15.82491225       9.68762099       0.03113382       0.01559277      -0.01058948      -9.25669025
N       -3.08354642      17.14424475       9.50552103      -0.01246497       0.00532866      -0.02097407      -8.58580216
H       -2.23464879      17.70600021       9.48717713       0.00966225       0.01489186      -0.01462042      -3.77209805
H       -3.98508427      17.62055289       9.53179425       0.01157892       0.00635087      -0.02077306      -3.79099606
N       -4.11599859      15.09731220       9.78507526      -0.01529417       0.01261618      -0.01723042      -8.68976224
H       -5.02312499      15.52143338       9.63930522       0.01286146       0.00682848      -0.00920236      -3.63489445
H       -4.08085518      14.09548856       9.95621912       0.00145643       0.01834088       0.00976169      -3.75256412
N       -1.80098753      15.22800681       9.72476614      -0.02007934       0.00265053       0.00687757      -8.62504566
H       -1.74250325      14.27627326      10.08902115      -0.00289283       0.02880643       0.02298627      -3.76785404
H       -0.96950511      15.81045207       9.74388054       0.00868744       0.01364420       0.00769067      -3.67766340
168
Lattice="12.468885909578862 12.45567328789723 0.03660330624248233 -12.500938529614729 12.48755672392219 -0.009239974293740398 0.04511830023029706 0.02729054207635215 25.947711814671685" Properties=species:S:1:pos:R:3:forces:R:3:energies:R:1 energy=-508.06453647204376 stress="-0.0005236043143431404 2.856680315450955e-05 -2.688014935303905e-05 2.856680315450955e-05 -0.0004988061785861333 0.0001799392092080403 -2.688014935303905e-05 0.0001799392092080403 0.00025132109111131374" free_energy=-508.06453647204376 pbc="T T T"
Pb       0.01509680       0.00622371      -0.00299617      -0.00034773       0.00035584      -0.00135618      -4.40259264
I       -3.10771702       5.39398522      -0.04311047       0.00010844      -0.00051857       0.00230648      -2.10914183
I        0.84866659       3.11815131       0.23579423       0.00014897       0.00040206       0.00163955      -2.11087341
I        0.09648284      -0.22016127       3.24359761      -0.00267862      -0.00009626      -0.00114899      -2.12731977
Cs       3.29718881       3.08175520       3.29283579       0.00062443       0.00382480      -0.00009247      -3.53249236
Pb       0.02878271       0.00350917       6.48537878      -0.00074639       0.00042573      -0.00116382      -4.40085762
I       -3.10190500       7.05175730       6.54570866      -0.00053564       0.00495602       0.00754854      -2.11361868
I       -0.77706227       3.13507489       6.29841526       0.00001925       0.00157387       0.00059376      -2.11198597
I       -0.03491615       0.21283142       9.73861390       0.00206407      -0.00209783       0.00034177      -2.13729299
Cs       2.97279639       3.14230052       9.74313169       0.00597800      -0.00539967      -0.00128408      -3.52481611
Pb       0.00859186       6.22784020       0.01985676      -0.00019532      -0.00031376       0.00119047      -4.40580160
I        3.12750894       7.05504361       0.04411848      -0.00065950       0.00035920      -0.00313843      -2.10961540
I       -0.82647909       9.35128920      -0.17405903      -0.00017665      -0.00002794      -0.00090891      -2.10864194
I       -0.03683765       6.48776033       3.26620475       0.00168401       0.00279577       0.00200765      -2.12515439
Cs      -3.22067036       3.14242638       3.25751439       0.00007181      -0.00133342       0.00108821      -3.52226426
Pb       0.02747686       6.25486895       6.50646695      -0.00109526       0.00292031       0.00335646      -4.40131545
I        3.14449463       5.45569156       6.46220640      -0.00073303       0.00299784       0.00222777      -2.10973034
I        0.80990464       9.40464682       6.80025358      -0.00310560       0.00294278       0.01197501      -2.10857329
I        0.08347404       5.99722465       9.75187614       0.00129220      -0.00578130       0.00044737      -2.12895866
Cs      -2.93743581       3.08196304       9.74094342       0.00166165      -0.00206505       0.00118383      -3.51796503
Pb       0.07571391      -0.04693622      12.99129323       0.00545464      -0.00152585       0.00055907      -4.39671732
I       -3.06315291       5.43205326      12.91722978       0.00181482      -0.00530200       0.00126002      -2.11261558
I        0.89235004       3.05632694      13.19681811       0.00096652      -0.00135425      -0.00117326      -2.11356663
I        0.12769203      -0.25697753      16.22682909      -0.00534054      -0.00538891      -0.00043466      -2.12232119
Cs       3.28780096       3.06301363      16.25717561       0.01263852      -0.00202850      -0.00161345      -3.52831584
Pb       0.04950673       0.00759354      19.47038750       0.00103912      -0.00055267      -0.00039246      -4.40261136
I       -3.06596171       7.07601195      19.54298100       0.00151973      -0.00093536      -0.00316589      -2.11301992
I       -0.76900191       3.12539810      19.26051620      -0.00046755      -0.00108175      -0.00016217      -2.10979426
I       -0.03548496       0.28222014      22.70691465       0.00270520       0.00231361      -0.00028203      -2.12293735
Cs       3.04692802       3.15289296      22.74232066       0.00001660      -0.00446567      -0.00126696      -3.52284676
Pb       0.08294982       6.17573662      13.00324516       0.00269238      -0.00158313      -0.00079095      -4.40738074
I        3.20027534       6.98469992      13.04592428       0.00375158      -0.00338756       0.00109071      -2.10306386
I       -0.63814603       9.29360682      12.81685870      -0.01106344       0.00196531      -0.02165560      -2.09208655
I        0.00625389       6.44412983      16.24313593       0.00355996      -0.00343820      -0.00074913      -2.12525398
Cs      -3.20437854       3.15371001      16.22363116       0.00009750      -0.00398254      -0.00097637      -3.52251569
Pb       0.05080190       6.23811044      19.48688852       0.00102525      -0.00229442       0.00048484      -4.40416497
I        3.16513927       5.40277872      19.45916194       0.00144624      -0.00201379       0.00261889      -2.10871545
I        0.86761700       9.37198915      19.67083851       0.00166014      -0.00059158      -0.00561999      -2.11605525
I        0.10418522       6.01713386      22.72801467      -0.00149174      -0.00166134       0.00027074      -2.12063352
Cs      -2.94640801       3.11041258      22.71584104       0.00005882       0.00044222       0.00026515      -3.52401603
Pb      -6.22584771       6.22599472       0.00393679      -0.00003309      -0.00053731       0.00004855      -4.40699601
I       -9.36508319      11.66126470      -0.09900487      -0.00064650       0.00027380      -0.00225024      -2.11371703
I       -5.41193229       9.34624287       0.18171582      -0.00054109      -0.00051264      -0.00112303      -2.11012477
I       -6.11754370       5.99002163       3.24193965       0.00097426      -0.00087012       0.00041167      -2.11513190
Cs      -3.02330254       9.30429770       3.26830522      -0.00125923       0.00054596       0.00168825      -3.52996491
Pb      -6.22373928       6.24641866       6.45710725       0.00124571       0.00125393       0.00033551      -4.39859961
I       -9.36598330      13.30226449       6.53647570      -0.00050615       0.00041797      -0.00583729      -2.10871163
I       -7.06942328       9.33588691       6.23318532      -0.00231152       0.00046692       0.00021244      -2.09921073
I       -6.32223690       6.41941867       9.73850721       0.00343774       0.00245958       0.00079456      -2.16731559
Cs      -3.29892143       9.20147355       9.81304751       0.00175874       0.01274511       0.01330991      -3.52424788
Pb      -6.24243878      12.45788759      -0.00544909      -0.00094464      -0.00055320      -0.00091676      -4.40097427
I       -3.11212544      13.27725647       0.09000215       0.00043677      -0.00165851      -0.00296721      -2.11695442
I       -7.04900217      15.58945022      -0.15902561       0.00078372       0.00034287      -0.00043449      -2.11706075
I       -6.32373206      12.61561338       3.23540943       0.00006930      -0.00269024      -0.00136806      -2.12242477
Cs      -9.49784026       9.41394954       3.20432714      -0.00094888       0.00096983      -0.00217855      -3.53299251
Pb      -6.26727944      12.43791806       6.47859626      -0.00081663      -0.00029327      -0.00120398      -4.42483954
I       -3.10348178      11.63349572       6.50557867      -0.00118066      -0.00075969       0.00757701      -2.11555440
I       -5.57349269      15.59375773       6.46794804      -0.00350173       0.00097992      -0.00301177      -2.02116346
I       -6.40095505      11.99993747       9.71408385       0.00052846       0.00229129      -0.00238898      -2.11216635
Cs      -9.29956209       9.25914568       9.75977447      -0.00318378       0.00021200       0.00394940      -3.54764759
Pb      -6.19745899       6.22226293      13.01402874       0.00451332      -0.00191026       0.00059079      -4.39721798
I       -9.27541143      11.64788880      12.99187076      -0.01920215      -0.00862543       0.00429870      -2.10394873
I       -5.40583112       9.31988031      13.25508358       0.00213706      -0.00761711      -0.00332579      -2.10365911
I       -6.10674024       6.01206704      16.23769547      -0.00088936      -0.00396520       0.00006063      -2.11979584
Cs      -2.93300896       9.28034607      16.24263421       0.00200672       0.00355233      -0.00479232      -3.52549604
Pb      -6.18358524       6.24916555      19.47812425       0.00120771      -0.00102688      -0.00006390      -4.40438612
I       -9.31708102      13.30437123      19.52769499       0.00243842      -0.00202508      -0.00675759      -2.11671288
I       -7.00505583       9.37112456      19.26841071       0.00212623      -0.00047128      -0.00220415      -2.11556831
I       -6.23993730       6.47370344      22.71277617       0.00274799       0.00050455      -0.00020968      -2.12154912
Cs      -3.20028284       9.40755582      22.70991482      -0.00005550      -0.00249259       0.00097164      -3.52426479
Pb      -6.19311601      12.42079642      12.93127936      -0.00596613      -0.00300397       0.00359932      -4.40853361
I       -7.01442283      15.55207761      12.78217006       0.00453132      -0.00192600      -0.00096843      -2.10089233
I       -6.14042051      12.73617426      16.18269482       0.01384192      -0.00499014       0.00092808      -2.14403513
Cs      -9.45376550       9.40103356      16.25620898      -0.00022461      -0.00509526       0.00086422      -3.52297810
Pb      -6.19082235      12.49138523      19.45359611       0.00306145      -0.00036694      -0.00134427      -4.39760942
I       -3.06402183      11.66910293      19.40172780       0.00265766      -0.00450270       0.00515061      -2.11016026
I       -5.38306403      15.60538951      19.68400586       0.00234877      -0.00054581      -0.00112237      -2.11080471
I       -6.10688014      12.27564824      22.69118454      -0.00290453       0.00000350      -0.00102568      -2.12237572
Cs      -9.16540839       9.33892429      22.70360682       0.00248227      -0.00014568      -0.00164708      -3.52074434
Pb       6.24659880       6.23686059       0.00508863      -0.00064424       0.00085197      -0.00126787      -4.40385756
I        3.11170030      11.62554763      -0.02472836      -0.00024221      -0.00065572       0.00066951      -2.11252077
I        7.07433662       9.34778589       0.19043073      -0.00016515       0.00048039      -0.00151135      -2.10831983
I        6.26800697       6.10604273       3.24939025      -0.00528220       0.00424200      -0.00098518      -2.12661288
Cs       9.51060981       9.37210793       3.23067489       0.00043968       0.00473535      -0.00258453      -3.52937932
Pb       6.27836182       6.24608125       6.46564395      -0.00078539       0.00219025      -0.00089372      -4.42760511
I        3.08338445      13.29147804       6.71253605      -0.00280573       0.00101501       0.00646001      -2.12224465
I        5.42266385       9.36241332       6.35392021      -0.00315685       0.00152600       0.00390102      -2.11689319
I        6.18923103       6.39116566       9.75136576       0.00129938      -0.00071558      -0.00081891      -2.15675061
Cs       9.28421201       9.52227091       9.73404225       0.00293025       0.00421110      -0.00303006      -3.49641933
Pb       6.23762788      12.46087364       0.03585860      -0.00044868       0.00037187       0.00034694      -4.40363963
I        9.35924911      13.27897225       0.11952800      -0.00056113       0.00014655      -0.00029713      -2.11260911
I        5.40230821      15.57143569      -0.14681629      -0.00130855      -0.00006116       0.00002318      -2.11035550
I        6.13940763      12.67706826       3.28934098      -0.00174077       0.00043086       0.00098148      -2.12796984
Cs       3.04012937       9.31962525       3.27329713      -0.00036485      -0.00329088       0.00153899      -3.52929032
Pb       6.23671177      12.46861418       6.53023700      -0.00291855       0.00079216       0.00122444      -4.39721683
I        9.35397534      11.68342829       6.42888628      -0.00220573       0.00354792      -0.00128096      -2.11215718
I        7.05118172      15.58312188       6.75219102      -0.00025243       0.00047589       0.00234951      -2.11802059
I        6.36735583      12.29050212       9.77723977      -0.00077662      -0.00065550       0.00171600      -2.12664309
Cs       3.36794365       9.16422673       9.74326961      -0.00009111       0.00119016       0.00771581      -3.50149579
Pb       6.32284335       6.17494435      13.04196247       0.00366782      -0.00487151      -0.00115822      -4.42935652
I        3.22830197      11.52654249      12.92596898      -0.00733462      -0.00492315       0.00645747      -2.12480345
I        7.13908033       9.31099833      13.16299153       0.00133820      -0.00356955      -0.00042666      -2.11405135
I        6.24953488       5.98996739      16.25393294       0.00021169      -0.00173451      -0.00230787      -2.11968954
Cs       9.55830808       9.24997397      16.22156145       0.00477158      -0.00026530      -0.00051949      -3.52599731
Pb       6.28234327       6.23015683      19.49234813       0.00152072      -0.00044878      -0.00158479      -4.40588431
I        3.15891633      13.30888057      19.56240968      -0.00006748      -0.00036991      -0.00700977      -2.11486686
I        5.46635346       9.35097228      19.32218124      -0.00147054      -0.00054528      -0.00235157      -2.11191525
I        6.24279307       6.46563605      22.72349632       0.00339088      -0.00003470      -0.00157461      -2.12003907
Cs       9.28119504       9.38440362      22.69864269      -0.00105687      -0.00158664      -0.00187990      -3.52493438
Pb       6.33758687      12.43217613      13.03027951       0.00236967      -0.00383114       0.00131182      -4.40136129
I        9.44167318      13.27184839      13.08997387       0.00015630      -0.00129760      -0.00114930      -2.11768985
I        5.49238750      15.54466103      12.91991361       0.00289887      -0.00439465       0.00473765      -2.11403476
I        6.19718057      12.66206688      16.26104779       0.00378399      -0.00357875      -0.00071387      -2.11334844
Cs       3.07560537       9.30694563      16.25291391      -0.00131424      -0.00260495      -0.00250691      -3.52511361
Pb       6.28906761      12.46858590      19.49794056       0.00088854      -0.00119520       0.00016963      -4.40620486
I        9.40247449      11.62874181      19.40427549       0.00051694       0.00008108       0.00146435      -2.11061098
I        7.10786141      15.58786423      19.69093147       0.00013291      -0.00129016       0.00062422      -2.11114130
I        6.36616362      12.26772296      22.74505798      -0.00171543       0.00027902      -0.00008873      -2.12195129
Cs       3.30229283       9.33550592      22.72798119       0.00080629       0.00165441      -0.00127876      -3.52260495
Pb       0.00122555      12.45433957       0.01933482       0.00032694      -0.00032491      -0.00594665      -4.37603910
I       -3.12897421      17.90627537      -0.04197277      -0.00019257       0.00161877       0.00184816      -2.11544134
I        0.79215628      15.57600920       0.26421827      -0.00180984      -0.00014617       0.00242936      -2.11605665
I        0.12528720      12.12263391       3.37679946       0.00055630      -0.00657690      -0.00617421      -2.13820512
Cs       3.20716635      15.49613663       3.30075552      -0.00120944      -0.00340254       0.00265294      -3.53628571
Pb      -0.02187332      12.50657397       6.38501212      -0.00254471       0.00267806      -0.00357889      -4.20649105
I       -3.10824587      19.62616849       6.49844164      -0.00055791       0.00322077      -0.00371444      -2.10060547
I       -0.67854923      15.58655219       5.86806970      -0.00114251       0.00137756      -0.01704728      -2.05292969
I       -2.90751311      12.76440397      12.43711903      -0.05825845       0.05922476       0.11056446      -2.04412267
Cs       3.44873291      15.81840674       9.71061018       0.01182655       0.00507894      -0.00057337      -3.47991570
Pb      -0.00260644      18.71395489       0.02304718       0.00009732       0.00071720      -0.00045607      -4.40250082
I        3.12204681      19.51558319       0.07598993       0.00003597      -0.00028992      -0.00311296      -2.11150783
I       -0.81809772      21.82683482      -0.22710345       0.00043555       0.00022707      -0.00414700      -2.10941288
I       -0.04831680      19.07441867       3.25676985       0.00222068       0.00897258      -0.00127352      -2.11477160
Cs      -3.39555846      15.65586829       3.18369611      -0.00987363      -0.00020752      -0.00472249      -3.52227486
Pb       0.00590715      18.71383866       6.44067752      -0.00061118       0.00008002      -0.00337233      -4.41511329
I        3.12710342      17.91197982       6.35159760       0.00000391       0.00224482      -0.00227408      -2.10433035
I        0.80154342      21.82590977       6.71181175      -0.00178566       0.00017604       0.00065992      -2.10610812
I        0.38089719      18.44640464       9.74536671       0.00427508      -0.00110396      -0.00123492      -2.15972644
Pb       0.18330964      12.38331685      13.11577732      -0.00661380      -0.00127061      -0.00504730      -4.17304458
I       -3.05458569      17.88558643      13.25089211       0.00211418      -0.00647425      -0.00147813      -2.02379406
I        0.91842535      15.50860376      13.13388799       0.00445076      -0.00729635      -0.00201300      -2.10894731
I        0.03618000      12.26819104      16.14708674      -0.01074259       0.00186220      -0.00729645      -2.15947199
Cs       3.29123257      15.59714725      16.28623117      -0.00246279      -0.00057449      -0.00181464      -3.52616532
Pb       0.04795589      12.48758392      19.53565420       0.00067707      -0.00098016      -0.00216357      -4.37357684
I       -3.08804518      19.52060556      19.49903436       0.00094114       0.00090899      -0.00235816      -2.11316050
I       -0.78202375      15.58804401      19.27532755       0.00022784      -0.00208825       0.00011361      -2.11175854
I       -0.03181293      12.71324340      22.74474430       0.00459985      -0.00199454      -0.00340058      -2.13872693
Cs       3.03721482      15.63874764      22.75558418      -0.00227762      -0.00282273       0.00002083      -3.52135161
Pb       0.05764226      18.65973186      13.03761377       0.00169976      -0.00323031      -0.00218037      -4.42512852
I        3.16751145      19.50647431      13.13769586       0.00356249      -0.00701341       0.00015359      -2.10538625
I       -0.76290748      21.76991978      12.76486862      -0.00034952      -0.00467647      -0.00386295      -2.12105602
I        0.07203855      18.92721982      16.25229707       0.00658722      -0.00168782      -0.00102173      -2.12091573
Cs      -3.24908316      15.52053310      16.26684427       0.01023639      -0.01926507      -0.01542795      -3.49738157
Pb       0.03860289      18.71086245      19.49738429       0.00080963      -0.00097637      -0.00045499      -4.40354864
I        3.16150467      17.89494897      19.47756306       0.00096060      -0.00112905       0.00258971      -2.11141040
I        0.83531300      21.83163095      19.73325927       0.00069692      -0.00091001       0.00212112      -2.11383303
I        0.08739650      18.45855772      22.73624897      -0.00318693      -0.00240436      -0.00074286      -2.12266234
Cs      -2.96058735      15.58563913      22.73943146       0.00054106       0.00013574       0.00083061      -3.52349083
C       -2.99623840      15.77031268       9.70987284       0.00347511       0.00209424      -0.00466689      -9.24046176
N       -3.03261433      17.08129723       9.47343626       0.00434307       0.00600506      -0.01985543      -8.59309593
H       -2.16863886      17.62258496       9.47133391       0.00228117       0.00215581      -0.01400324      -3.78546632
H       -3.92030837      17.58338299       9.46793948       0.00503596       0.00246332      -0.02124646      -3.77833489
N       -4.13347711      15.07714846       9.78990810       0.00219413       0.00597724      -0.00914771      -8.71521249
H       -5.02046964      15.52317295       9.59263962       0.00221578       0.00453667      -0.01069442      -3.64391379
H       -4.14535277      14.08570521      10.00800652      -0.00181890       0.00982371       0.01034232      -3.73235940
N       -1.81542181      15.13478843       9.81111756       0.00012924       0.00723054       0.00877302      -8.70072859
H       -1.79840049      14.21676693      10.24693629      -0.00289234       0.01572625       0.03205491      -3.69818237
H       -0.97155320      15.69735473       9.86321872       0.00067620       0.00652016       0.01414845      -3.66035606
168
Lattice="12.468885909578862 12.45567328789723 0.03660330624248233 -12.500938529614729 12.48755672392219 -0.009239974293740398 0.04511830023029706 0.02729054207635215 25.947711814671685" Properties=species:S:1:pos:R:3:forces:R:3:energies:R:1 energy=-508.1396101029842 stress="-0.0005240882178812341 1.2390022547327405e-05 1.428487819379475e-05 1.2390022547327405e-05 -0.00040003170303361897 0.00012217647057570198 1.428487819379475e-05 0.00012217647057570198 0.00026225351735407527" free_energy=-508.1396101029842 pbc="T T T"
Pb       0.01362551       0.01016815      -0.00369485      -0.00040377       0.00035241      -0.00063776      -4.40208202
I       -3.10638461       5.38991298      -0.03802238      -0.00019526      -0.00065160       0.00286080      -2.10870545
I        0.84971590       3.12183633       0.24451550      -0.00000707       0.00013994       0.00117679      -2.11179104
I        0.09597312      -0.21576516       3.24456700      -0.00015120      -0.00053328      -0.00033123      -2.12873943
Cs       3.29950675       3.08541681       3.30264424      -0.00156541       0.00147979       0.00149747      -3.52955894
Pb       0.02652258       0.00827686       6.48563055      -0.00034966      -0.00009662      -0.00011834      -4.39904833
I       -3.10160470       7.04814264       6.54223060      -0.00073316       0.00015795      -0.00082423      -2.11384695
I       -0.76797753       3.14249079       6.29372582       0.00095629       0.00042938      -0.00073911      -2.11096641
I       -0.05424139       0.22025162       9.73808842       0.00037241       0.00006588      -0.00005054      -2.13800732
Cs       2.95319883       3.14284708       9.74556842       0.00003314      -0.00094952       0.00079812      -3.51831711
Pb       0.00741520       6.23087029       0.01916312      -0.00038966      -0.00007019       0.00000482      -4.40499376
I        3.12630789       7.05698831       0.03878447      -0.00051843       0.00027529      -0.00328770      -2.10912561
I       -0.83270007       9.35122407      -0.17844506      -0.00037700      -0.00021426      -0.00157710      -2.10711506
I       -0.02985656       6.50452927       3.26655302       0.00257154       0.00142971       0.00034648      -2.12672473
Cs      -3.21787537       3.13660235       3.26048598      -0.00084897      -0.00090551       0.00122137      -3.52210017
Pb       0.03023790       6.26533784       6.50934115      -0.00056111       0.00091394       0.00068178      -4.40114357
I        3.14697851       5.45875199       6.47538510      -0.00050251       0.00141215       0.00266457      -2.11215639
I        0.79884589       9.41506087       6.84338198      -0.00271511       0.00135171       0.00400291      -2.10678202
I        0.06815470       5.98038995       9.74701772      -0.00218598      -0.00220891       0.00030934      -2.12488468
Cs      -2.94005101       3.06780947       9.74356497       0.00007414      -0.00018680       0.00052957      -3.52136570
Pb       0.04143577      -0.02434564      12.99095507       0.00051791      -0.00186785      -0.00000050      -4.39749687
I       -3.07107320       5.42942057      12.90834285       0.00065730      -0.00101261       0.00234208      -2.11271722
I        0.83037476       3.10591499      13.19889374      -0.00035336      -0.00181675       0.00115655      -2.11186375
I        0.11097534      -0.24865816      16.22772141      -0.00000377      -0.00332280      -0.00012110      -2.12536403
Cs       3.24551765       3.07645089      16.26638253      -0.00033657       0.00010165       0.00112742      -3.53010386
Pb       0.04055438       0.01043145      19.47382283      -0.00006559      -0.00051846      -0.00016537      -4.40240776
I       -3.06642536       7.09097362      19.52228097       0.00035948      -0.00050211      -0.00234649      -2.11156475
I       -0.77072103       3.13213328      19.24964753       0.00034151      -0.00059706      -0.00234404      -2.11128770
I       -0.04436934       0.29367358      22.70908637      -0.00052071       0.00269732      -0.00038081      -2.12233012
Cs       3.04539492       3.15899335      22.75266275      -0.00051242      -0.00156518       0.00105118      -3.52314441
Pb       0.05388391       6.22905691      12.98600716       0.00070531      -0.00154519       0.00016345      -4.39917861
I        3.17700335       7.01452284      13.02327271       0.00105440      -0.00240284      -0.00204350      -2.11107295
I       -0.75686791       9.37161932      12.69854793       0.00118426      -0.00143096      -0.00044196      -2.12238563
I        0.00190313       6.49275129      16.22749392       0.00370433       0.00004116       0.00014790      -2.12923190
Cs      -3.20605988       3.14753070      16.21361961      -0.00150996      -0.00153853      -0.00038726      -3.52351145
Pb       0.04696070       6.24847454      19.47900614       0.00026204      -0.00077869       0.00012954      -4.40317591
I        3.16025176       5.40503170      19.46919968       0.00028299      -0.00077230       0.00275515      -2.10788567
I        0.87633119       9.37436779      19.66022256      -0.00009831      -0.00058044       0.00096343      -2.11133305
I        0.09363019       6.02440400      22.72195343      -0.00329127      -0.00186552       0.00014022      -2.12213311
Cs      -2.94949003       3.11435204      22.71502615      -0.00092680       0.00127210       0.00008771      -3.52305256
Pb      -6.22407231       6.22329610       0.00448747      -0.00010441      -0.00037879       0.00031652      -4.40752381
I       -9.36588829      11.66561667      -0.09629611      -0.00054567       0.00009985      -0.00107207      -2.11408090
I       -5.41251694       9.34402861       0.18312388      -0.00044661      -0.00026671      -0.00035048      -2.10884979
I       -6.10885136       5.98861575       3.24309809      -0.00134230       0.00027625       0.00024624      -2.11325215
Cs      -3.02809812       9.30994710       3.27147803       0.00013967      -0.00087421      -0.00089211      -3.53050319
Pb      -6.22395090       6.24590839       6.45384946      -0.00067075       0.00038397       0.00005133      -4.39651627
I       -9.35947592      13.29583398       6.55658059      -0.00064793      -0.00002199      -0.00013597      -2.11322673
I       -7.06720813       9.33955659       6.24507625      -0.00126406       0.00032323       0.00100889      -2.10226604
I       -6.32481741       6.42189755       9.73934632       0.00157118       0.00020655       0.00018959      -2.17275770
Cs      -3.36063082       9.16838644       9.78194221       0.00066224       0.00212079      -0.00102163      -3.49070979
Pb      -6.24154923      12.45564300       0.00793885      -0.00057147      -0.00035107      -0.00024612      -4.40035822
I       -3.11126584      13.27555178       0.08601343      -0.00040644      -0.00091578      -0.00089316      -2.11677890
I       -7.04383804      15.58983836      -0.14931760       0.00031184       0.00008618       0.00093285      -2.11795068
I       -6.31490480      12.60936720       3.25704351      -0.00146141      -0.00059992      -0.00019610      -2.12540491
Cs      -9.49642547       9.41793847       3.20619317       0.00045858       0.00017725      -0.00063382      -3.53238803
Pb      -6.25518740      12.43877070       6.49889580      -0.00055262       0.00009140       0.00016638      -4.41934106
I       -3.09971811      11.62289820       6.51803153      -0.00096024       0.00024290      -0.00174097      -2.11394293
I       -5.55644305      15.59416348       6.48172435      -0.00175718       0.00070807      -0.00018545      -2.02317942
I       -6.29415772      11.97282807       9.74988650      -0.00047111       0.00232755       0.00008830      -2.12942833
Cs      -9.29250933       9.26706979       9.75318767       0.00007959      -0.00013646      -0.00015797      -3.54534443
Pb      -6.19468450       6.23879660      13.02158208       0.00073081      -0.00039651       0.00014724      -4.39657579
I       -9.34407264      11.62798345      12.95057450       0.00049068      -0.00182024       0.00098103      -2.10652977
I       -5.39242243       9.34183972      13.25273087       0.00102354      -0.00065884      -0.00025250      -2.10955432
I       -6.10404632       6.01170352      16.23822836      -0.00206468       0.00013318       0.00021686      -2.11561322
Cs      -2.91252292       9.32862969      16.22076651       0.00170790      -0.00043659      -0.00039802      -3.52436495
Pb      -6.17987031       6.24724378      19.47666620       0.00039506      -0.00051355       0.00012021      -4.40626281
I       -9.33009545      13.30444069      19.56155197       0.00010766      -0.00082553      -0.00049998      -2.11128810
I       -7.01327273       9.36483389      19.28718057       0.00047661      -0.00048103       0.00027151      -2.11326719
I       -6.22749953       6.46880252      22.71369417       0.00345650      -0.00106475       0.00019339      -2.12173337
Cs      -3.19814334       9.40574958      22.70057002      -0.00039230      -0.00105323      -0.00105010      -3.52449721
Pb      -6.25107560      12.43950610      12.99767077      -0.00036836      -0.00085985      -0.00011324      -4.41733937
I       -7.08817030      15.55751842      12.80068703      -0.00088201      -0.00113718       0.00150111      -2.10422112
I       -6.32877065      12.71022359      16.22475955       0.00191979      -0.00054767       0.00012336      -2.13090221
Cs      -9.45809218       9.41338080      16.26024293       0.00053817      -0.00204330       0.00053959      -3.52902943
Pb      -6.21108255      12.48547142      19.47540912       0.00029363      -0.00035664      -0.00002273      -4.40036424
I       -3.07003099      11.68005336      19.37191889       0.00031244      -0.00037942       0.00046687      -2.11725325
I       -5.40054505      15.60332628      19.69737519       0.00052445      -0.00052800      -0.00005247      -2.11384905
I       -6.09969694      12.26963994      22.71284018      -0.00054011      -0.00023527      -0.00007362      -2.12180908
Cs      -9.16480154       9.33648959      22.70744275       0.00163556      -0.00042926      -0.00046795      -3.52151260
Pb       6.24560086       6.24076603       0.00334476      -0.00053230       0.00051365      -0.00078660      -4.40335875
I        3.11052409      11.61927985      -0.02153433      -0.00019923      -0.00018056       0.00032966      -2.11156732
I        7.07597239       9.34972167       0.18934088      -0.00005178       0.00027594      -0.00119126      -2.10788465
I        6.25741806       6.11503997       3.24909299      -0.00452977       0.00184206      -0.00058322      -2.12915688
Cs       9.51148690       9.38420100       3.22840760       0.00029279       0.00326197      -0.00175032      -3.52878675
Pb       6.28268638       6.24310690       6.46938331      -0.00072955       0.00137447      -0.00059621      -4.42881676
I        3.07668902      13.29560822       6.72992113      -0.00131132       0.00066941       0.00093077      -2.12374408
I        5.42190619       9.36176115       6.36827215      -0.00103690       0.00088285       0.00082271      -2.11893945
I        6.23715667       6.36301396       9.74945926       0.00179778       0.00043876      -0.00091966      -2.15188514
Cs       9.27774843       9.51287949       9.73305294       0.00033022       0.00006381      -0.00153099      -3.50118805
Pb       6.23357072      12.46111854       0.03633722      -0.00034137       0.00017106       0.00001928      -4.40371900
I        9.35628773      13.27827056       0.12175945      -0.00039666       0.00026653       0.00037736      -2.11257067
I        5.39626821      15.57066069      -0.14423236      -0.00112655      -0.00006571       0.00083905      -2.11029890
I        6.12738072      12.67402140       3.29106264      -0.00049263      -0.00058175       0.00026090      -2.12902334
Cs       3.04038232       9.30752912       3.28496654       0.00047059      -0.00185278      -0.00013743      -3.52848640
Pb       6.22929842      12.47007138       6.53160194      -0.00110408       0.00081209       0.00034815      -4.39580335
I        9.35021470      11.69397143       6.42589371      -0.00092000       0.00154719      -0.00025730      -2.11219775
I        7.04864128      15.58408434       6.75507902      -0.00033793       0.00057155       0.00042033      -2.11891021
I        6.36634560      12.29372188       9.77632179       0.00000608       0.00067430       0.00029223      -2.12767382
Cs       3.38772082       9.17585893       9.75295593       0.00047226      -0.00100040       0.00019656      -3.50239179
Pb       6.30434506       6.17245572      13.03576458       0.00117854      -0.00170057      -0.00094169      -4.42913270
I        3.15119544      11.58063303      12.86766798       0.00108972      -0.00314233       0.00187729      -2.11838757
I        7.09576824       9.31082261      13.15841662       0.00127998      -0.00148775      -0.00096150      -2.11542191
I        6.22061141       6.00020124      16.25198421      -0.00168020      -0.00087370      -0.00068272      -2.12268846
Cs       9.54963198       9.24292787      16.20641867       0.00179511      -0.00046259      -0.00155094      -3.52708097
Pb       6.27710179       6.23234968      19.49172472       0.00031331      -0.00078967      -0.00072002      -4.40510710
I        3.15744210      13.31356744      19.57257211       0.00020583      -0.00013572       0.00007894      -2.11143335
I        5.45901011       9.35059045      19.32302833       0.00022746      -0.00062810       0.00048095      -2.10995425
I        6.24506485       6.47048615      22.72229247       0.00278619      -0.00039765      -0.00065887      -2.11960617
Cs       9.27799234       9.38256483      22.69438467      -0.00073525      -0.00134121      -0.00207273      -3.52548299
Pb       6.28493397      12.43014553      13.02689123       0.00096867      -0.00137948       0.00041052      -4.40112466
I        9.39156895      13.25676301      13.09209452       0.00070042      -0.00179297       0.00007947      -2.11459777
I        5.50007821      15.55869684      12.93687431       0.00177788      -0.00105649       0.00162633      -2.11022826
I        6.16294159      12.64127623      16.25943058       0.00024643      -0.00175419       0.00014568      -2.11570554
Cs       3.10208145       9.33553874      16.22082342       0.00081852      -0.00318291       0.00017552      -3.52915080
Pb       6.28420205      12.46675292      19.49922993       0.00010383      -0.00054136      -0.00003126      -4.40665357
I        9.39520523      11.62444645      19.39980791       0.00002740      -0.00057916      -0.00057284      -2.11018381
I        7.11261363      15.58443572      19.68479486       0.00031780      -0.00054270      -0.00106973      -2.11130774
I        6.36216575      12.26910659      22.74553313      -0.00007402       0.00073524       0.00008875      -2.12194906
Cs       3.29756791       9.33878067      22.72453050       0.00091591       0.00101605      -0.00058363      -3.52443280
Pb       0.00166542      12.45095720       0.01157869      -0.00020612      -0.00039965       0.00036783      -4.37533083
I       -3.12907840      17.91229878      -0.04655064      -0.00042350       0.00090996       0.00169832      -2.11560111
I        0.78624776      15.57574919       0.26671370      -0.00169897       0.00010293       0.00173474      -2.11664967
I        0.12892126      12.09973496       3.37233313       0.00040229      -0.00389806      -0.00016614      -2.14097011
Cs       3.19674168      15.48097613       3.30598820      -0.00115852      -0.00134284       0.00062828      -3.53508906
Pb      -0.02647645      12.51243139       6.37767934      -0.00149389       0.00123496      -0.00111597      -4.20274128
I       -3.10682957      19.62492156       6.49864546      -0.00058526       0.00110729      -0.00339448      -2.10296582
I       -0.68509305      15.58913239       5.82925323      -0.00191430       0.00024307      -0.00817312      -2.05995053
I       -3.04245095      13.14264993      13.11152974       0.00045403      -0.00276037      -0.00205365      -2.06395479
Cs       3.47339540      15.82911691       9.71557701       0.00297236       0.00024665       0.00095203      -3.48597947
Pb      -0.00166992      18.71685396       0.02065165      -0.00032444       0.00050611      -0.00029243      -4.40185669
I        3.12388794      19.51509352       0.07451608      -0.00011663      -0.00019267      -0.00215347      -2.11199057
I       -0.81377432      21.83002239      -0.23823940       0.00020080       0.00039415      -0.00329920      -2.10872500
I       -0.04829843      19.09987908       3.25214957       0.00177445       0.00502817      -0.00057470      -2.11394986
Cs      -3.42231070      15.66185784       3.16805214      -0.00689424      -0.00111599      -0.00254833      -3.51862305
Pb       0.00606561      18.71413596       6.43425850      -0.00059503      -0.00045689      -0.00205192      -4.41264852
I        3.12718130      17.91770591       6.33807814      -0.00076313      -0.00018254      -0.00026608      -2.10409804
I        0.79403935      21.82777568       6.71566189      -0.00170990      -0.00054388       0.00132854      -2.10532837
I        0.38918060      18.43927456       9.73899934       0.00144416      -0.00153702      -0.00043602      -2.15568031
Pb       0.08957413      12.43728594      13.13160091       0.00266816      -0.00224737       0.00046443      -4.19203777
I       -3.06676565      17.94006228      13.24445487       0.00118281      -0.00300388       0.00078616      -2.02089449
I        0.93833888      15.53166984      13.10586593       0.00278479      -0.00188389       0.00103808      -2.11008722
I        0.17809547      12.23692381      16.15290667      -0.00053885      -0.00190340       0.00035321      -2.15137116
Cs       3.27154774      15.59373843      16.28297154       0.00075693       0.00092866       0.00164811      -3.53250106
Pb       0.05241923      12.48575218      19.52485863       0.00032330      -0.00038752       0.00040381      -4.37526665
I       -3.08945538      19.52064525      19.49073172       0.00018365      -0.00071652      -0.00320260      -2.11461275
I       -0.77920147      15.58802961      19.26357027       0.00020657      -0.00064519      -0.00181769      -2.11369822
I       -0.03024061      12.70294417      22.73912154       0.00073673       0.00099962       0.00028078      -2.14023921
Cs       3.03183031      15.63764828      22.75705459      -0.00154235      -0.00122813       0.00139001      -3.52057410
Pb       0.05759152      18.67643254      13.02656811       0.00124756      -0.00197231      -0.00064409      -4.42447184
I        3.16879555      19.51487517      13.13468150       0.00072578      -0.00081499      -0.00128448      -2.10251111
I       -0.77518037      21.78816999      12.75922869       0.00109322      -0.00211571      -0.00220515      -2.11949644
I        0.09056806      18.94184197      16.24602944       0.00319109      -0.00023583      -0.00038223      -2.12180930
Cs      -3.29765254      15.53937061      16.27696637      -0.00072749      -0.00452239      -0.00076762      -3.52746449
Pb       0.04047232      18.71173062      19.49134242       0.00001701      -0.00077194      -0.00035849      -4.40254377
I        3.16328872      17.89386805      19.48074785       0.00025965      -0.00013987       0.00307282      -2.11084430
I        0.82912941      21.83469929      19.74097349      -0.00060858      -0.00062177       0.00195627      -2.11359936
I        0.08281458      18.45320232      22.73209108      -0.00293975      -0.00225013      -0.00020903      -2.12340388
Cs      -2.95499233      15.58270517      22.73436951       0.00018557       0.00075941       0.00032880      -3.52191994
C       -2.98992665      15.69224044       9.77440282      -0.00955368      -0.00108986       0.00238852      -9.22592669
N       -2.97257150      16.98816126       9.47014267       0.00729784       0.00551824      -0.01168021      -8.60540498
H       -2.09200157      17.50449818       9.47141256      -0.00024427       0.00109181      -0.01112165      -3.79842203
H       -3.84258186      17.51740094       9.41953647       0.00143671       0.00199328      -0.01909199      -3.76211411
N       -4.15123515      15.04036137       9.84955327       0.00954167       0.01024248       0.00078510      -8.73652864
H       -5.01427817      15.50562120       9.59568827       0.00046367       0.00294637      -0.01101372      -3.65019146
H       -4.20686076      14.05142473      10.07057457      -0.00082248       0.00787433       0.01199244      -3.71578182
N       -1.83441463      15.01816022       9.94769968       0.00401582       0.01192441       0.01441022      -8.73873139
H       -1.87017077      14.14315404      10.46085722      -0.00452408       0.01282122       0.02518952      -3.65672002
H       -0.97942473      15.55939278      10.03476366      -0.00404462       0.00840850       0.01743847      -3.64380984
