159
Lattice="12.468885909578862 12.45567328789723 0.03660330624248233 -12.500938529614729 12.48755672392219 -0.009239974293740398 0.04511830023029706 0.02729054207635215 25.947711814671685" Properties=species:S:1:pos:R:3:forces:R:3:energies:R:1 energy=-454.0670788534573 stress="0.0001601206940662191 0.00010425590439019 6.170236241481577e-05 0.00010425590439019 -1.5763491703697803e-05 3.32485646971594e-05 6.170236241481577e-05 3.32485646971594e-05 0.000397626832170307" free_energy=-454.0670788534573 pbc="T T T"
Pb       0.02101505      -0.00668468       0.01029828       0.00006101      -0.00048013      -0.00058547      -4.40336762
I       -3.10810852       5.41005452      -0.07083694       0.00014480      -0.00072231       0.00029980      -2.11067871
I        0.84116255       3.11162690       0.20021751       0.00053171       0.00045166       0.00164570      -2.11106413
I        0.12791089      -0.22180458       3.25741902      -0.00164853      -0.00120852      -0.00327116      -2.12361547
Cs       3.25332904       3.04970904       3.26448335       0.00071323       0.00171813      -0.00066401      -3.52189293
Pb       0.03188367      -0.00294904       6.49399882       0.00010986       0.00013730       0.00193696      -4.40218887
I       -3.09632443       7.05501605       6.58600681      -0.00007502      -0.00573848      -0.01312582      -2.11469876
I       -0.79400700       3.11420240       6.30544418       0.00000607       0.00063960       0.00126555      -2.11233273
I       -0.05462214       0.21693336       9.75131452       0.00536916       0.00035788      -0.00064094      -2.12477181
Cs       3.04117471       3.18083513       9.73713320       0.00108412       0.00162765       0.00374286      -3.52178402
Pb       0.01456779       6.22918763       0.01724628      -0.00042364       0.00032323       0.00002178      -4.40414534
I        3.13574075       7.05224735       0.10505536      -0.00027876       0.00008444      -0.00033700      -2.11087385
I       -0.81304683       9.34789948      -0.16677376      -0.00146338      -0.00130277      -0.00166262      -2.11075000
I       -0.07852380       6.45256765       3.26246364       0.00300335       0.00075252      -0.00177159      -2.12323093
Cs      -3.22380671       3.15963340       3.24991248      -0.00022961       0.00001319      -0.00106955      -3.52247942
Pb       0.02563057       6.23201459       6.50143746       0.00146106      -0.00081763      -0.00030032      -4.40168823
I        3.14479639       5.40320111       6.41615367      -0.00002791       0.00030074       0.00312859      -2.11336614
I        0.83755559       9.35424436       6.71258076      -0.00139922       0.00129243       0.00239735      -2.11366074
I        0.12527663       6.02404396       9.75104488      -0.00322424       0.00246092      -0.00173109      -2.12610821
Cs      -2.96067256       3.09087714       9.73327479       0.00195173       0.00026882       0.00139203      -3.51981287
Pb       0.02059508       0.01846054      12.98466262       0.00555962       0.00059953       0.00004016      -4.37708242
I       -3.08547491       5.43092154      12.90296439       0.00035673      -0.00142295       0.00051666      -2.11315549
I        0.86383530       3.12707466      13.17310181       0.00120747      -0.00012870       0.00229771      -2.11813512
I        0.15870750      -0.21082740      16.21562707       0.00090045      -0.00259025       0.00087642      -2.12574663
Cs       3.27560115       3.06818701      16.24898667       0.00483590       0.00141095      -0.00414581      -3.52163942
Pb       0.05461084       0.01167965      19.47372507       0.00072643      -0.00014488      -0.00265147      -4.40189114
I       -3.07410648       7.07150085      19.57004260       0.00005893      -0.00443539       0.00604241      -2.11579791
I       -0.77110005       3.12789832      19.27522791       0.00052631       0.00079522       0.00020664      -2.11188229
I       -0.04079758       0.23371169      22.71012155       0.00317586       0.00025955       0.00259835      -2.12363692
Cs       3.06327883       3.18581540      22.72096134      -0.00209763      -0.00233375       0.00073273      -3.52144439
Pb       0.04055050       6.23739314      12.99180325       0.00333327       0.00136370       0.00000988      -4.39570746
I        3.16677832       7.06999698      13.07864696       0.00704340      -0.00189055      -0.00037336      -2.11690733
I       -0.81005722       9.38521105      12.81009221      -0.00463721       0.00697172      -0.00047354      -2.12530229
I       -0.05613797       6.46734479      16.23125657       0.00483577      -0.00184298       0.00144467      -2.12733598
Cs      -3.20247700       3.17670893      16.23064660      -0.00135605       0.00054516      -0.00264933      -3.51955101
Pb       0.04805763       6.24563299      19.48048891       0.00104961      -0.00025926       0.00028656      -4.40151056
I        3.16693302       5.41758968      19.38725376       0.00009600       0.00013578       0.00308132      -2.11315596
I        0.86139042       9.36815176      19.67171290      -0.00033985       0.00095302      -0.00204693      -2.11402756
I        0.15136959       6.03148112      22.71947586      -0.00132566       0.00024482       0.00149680      -2.12331558
Cs      -2.93965542       3.10021644      22.71467164       0.00022806      -0.00117025       0.00063035      -3.52245773
Pb      -6.22926773       6.23722873       0.00563866      -0.00008429       0.00042406      -0.00005148      -4.40427053
I       -9.35731370      11.65383620      -0.07532555      -0.00062573      -0.00127981       0.00030297      -2.11114647
I       -5.40922985       9.35693235       0.19546843       0.00118380      -0.00086568       0.00199112      -2.11075975
I       -6.12307851       6.02272236       3.25112997      -0.00280691      -0.00062242      -0.00161387      -2.12277389
Cs      -2.99474474       9.29175605       3.26147170       0.00125886       0.00432898      -0.00033946      -3.52215355
Pb      -6.22005396       6.23977070       6.49002428      -0.00078151      -0.00031906      -0.00042056      -4.40155850
I       -9.34502909      13.30233812       6.59277734       0.00118018       0.00029973      -0.00036375      -2.11257100
I       -7.04219277       9.36105151       6.30627073       0.00000257       0.00086759       0.00305151      -2.11383203
I       -6.31138024       6.46856908       9.73949274       0.00285285       0.00164372      -0.00157052      -2.12677234
Cs      -3.20596973       9.36582172       9.70496461      -0.00020286      -0.01374887      -0.00240333      -3.51101019
Pb      -6.23595708      12.47293641       0.01225451       0.00010754      -0.00005185      -0.00131728      -4.40171213
I       -3.11485027      13.29530336       0.10023262      -0.00028428       0.00057886      -0.00011400      -2.11103686
I       -7.06340663      15.58890750      -0.17161914      -0.00181802       0.00079856      -0.00218339      -2.11054717
I       -6.32687724      12.69703203       3.26185295       0.00272943       0.00059183      -0.00233477      -2.12653643
Cs      -9.47467508       9.40212619       3.24599877       0.00041510       0.00011706      -0.00016937      -3.52155034
Pb      -6.22507788      12.47997173       6.48535860       0.00007520      -0.00089207       0.00083319      -4.39821943
I       -3.10617044      11.65396626       6.42287992      -0.00108239      -0.00212249      -0.00217654      -2.10952864
I       -5.40670832      15.59435719       6.70945816      -0.00888504       0.00019799      -0.01505244      -2.11202229
I       -6.07609729      12.28847821       9.77017968       0.01214065       0.00425656       0.00547651      -2.13349332
Cs      -9.21367403       9.32071838       9.72433323       0.00120425       0.00033579       0.00352298      -3.51533197
Pb      -6.20956055       6.24613749      12.97872696      -0.00330891       0.00221872       0.00005507      -4.39546071
I       -9.21752508      11.71223527      12.91178704      -0.00444170      -0.00078521       0.00249517      -2.13090026
I       -5.36641160       9.39725752      13.17113364       0.00399870       0.00784722       0.00172883      -2.12601509
I       -6.09762194       6.04248436      16.21958242      -0.00167743       0.00107350       0.00175443      -2.12634301
Cs      -2.97531632       9.25198396      16.27509161      -0.00283071      -0.01181657       0.00561223      -3.50944071
Pb      -6.19774351       6.25401335      19.46915972      -0.00040852      -0.00068647       0.00009641      -4.40144451
I       -9.32113640      13.31670021      19.55429635       0.00230866       0.00094583      -0.00744576      -2.11427584
I       -7.01777025       9.37471289      19.26549403       0.00226651       0.00196442      -0.00169821      -2.11404384
I       -6.29220607       6.47871786      22.70798903       0.00143027       0.00119680       0.00129144      -2.12279244
Cs      -3.18412247       9.42757921      22.71556443      -0.00124968       0.00052633       0.00080506      -3.52186642
Pb      -6.29633029      12.46356638      12.97700291       0.02232970       0.00538803      -0.00023102      -4.17057256
I       -7.00252106      15.58574437      12.79768314      -0.00497336      -0.01091327      -0.00493836      -2.11787897
I       -6.23805181      12.73473077      16.19507500       0.02309949       0.00868173      -0.00558149      -2.13827841
Cs      -9.45582142       9.40262684      16.23552040      -0.00243398      -0.00530809      -0.00092215      -3.51441599
Pb      -6.19843400      12.49073655      19.48386026       0.00173309       0.00132801      -0.00311630      -4.39809248
I       -3.08294923      11.67104545      19.36984064       0.00063596      -0.00213328       0.00776134      -2.10844670
I       -5.37625193      15.60750860      19.65612581      -0.00152832       0.00060698       0.00689520      -2.11238912
I       -6.09747900      12.27649169      22.70883538      -0.00113134       0.00109440      -0.00020324      -2.12676067
Cs      -9.19123651       9.34277161      22.70992266      -0.00006641      -0.00053136       0.00010085      -3.52143556
Pb       6.25560145       6.22126108       0.02886798      -0.00024242      -0.00047459      -0.00031497      -4.40418933
I        3.12503732      11.63789964      -0.05211417       0.00094009      -0.00128020       0.00041103      -2.11120517
I        7.07576094       9.33967749       0.21881896       0.00108709      -0.00011545       0.00208291      -2.11066644
I        6.36301550       6.00408756       3.27428146      -0.00138673      -0.00107356      -0.00164022      -2.12316819
Cs       9.49052980       9.27556338       3.28423312       0.00121658       0.00158966       0.00039564      -3.52160907
Pb       6.26504033       6.22469573       6.51322391      -0.00088844       0.00268911      -0.00107574      -4.40216789
I        3.13435222      13.28610544       6.61746192      -0.00246305       0.00050616       0.00174797      -2.11376916
I        5.44046150       9.34167473       6.32468793      -0.00026234       0.00024645       0.00155506      -2.11334771
I        6.18759962       6.43004101       9.76311450       0.00836494      -0.00278734      -0.00008897      -2.12456436
Cs       9.27809011       9.40292550       9.75702071      -0.00094249       0.00140024       0.00262661      -3.51758162
Pb       6.24918819      12.45689032       0.03546106      -0.00062232      -0.00062234       0.00034373      -4.40319957
I        9.37003483      13.27971895       0.12340828      -0.00025262      -0.00026068      -0.00019116      -2.11114438
I        5.42143932      15.57416032      -0.14866685      -0.00085518       0.00000175      -0.00163742      -2.11106933
I        6.15524189      12.67922181       3.28329770       0.00146608      -0.00020940      -0.00286732      -2.12428152
Cs       3.01169313       9.38605970       3.26831386      -0.00053120       0.00062214      -0.00047447      -3.52149800
Pb       6.25770141      12.46142214       6.51999202      -0.00011984      -0.00019814       0.00252873      -4.40195438
I        9.37855188      11.63093763       6.43600897      -0.00068523      -0.00025667       0.00463292      -2.11328900
I        7.07530629      15.57887060       6.72568803      -0.00055557       0.00039185       0.00004400      -2.11204333
I        6.35061717      12.24224028       9.77805012      -0.00565858      -0.00188757      -0.00103378      -2.12602079
Cs       3.27834680       9.30140635       9.74550342       0.00429658      -0.00569904       0.00166865      -3.51531856
Pb       6.28949993       6.23571789      13.00389650       0.00745034      -0.00222355       0.00045490      -4.39611629
I        3.03121881      11.70007359      12.91225956       0.00373846       0.00062249      -0.00415448      -2.13035861
I        7.08675918       9.35695036      13.19301556       0.00330426       0.00056228       0.00278883      -2.11908397
I        6.40062209       6.00411601      16.24326354      -0.00333181       0.00181835       0.00037756      -2.12508392
Cs       9.51327154       9.29218110      16.26495329       0.00088983       0.00329191      -0.00225197      -3.51830971
Pb       6.28759433       6.23855848      19.49121826      -0.00006200       0.00110568       0.00021441      -4.40242280
I        3.15853274      13.30105595      19.57915152      -0.00122492       0.00094935      -0.00514195      -2.11290570
I        5.46416062       9.35542438      19.29292409       0.00088591      -0.00073397       0.00009436      -2.11258994
I        6.19413327       6.45967671      22.73070095       0.00305910      -0.00064484       0.00097157      -2.12333276
Cs       9.30060858       9.41140956      22.73698425      -0.00127965      -0.00258124      -0.00035778      -3.52207782
Pb       6.29467585      12.48167361      13.01113793      -0.00595378       0.00092912      -0.00037198      -4.37700590
I        9.39258954      13.27193039      13.09588157       0.00021928       0.00101688       0.00043009      -2.12694008
I        5.44397008      15.59039809      12.82621791      -0.00102240       0.00013322      -0.00167450      -2.11826613
I        6.17155452      12.68896158      16.24226234      -0.00104097      -0.00053684       0.00038870      -2.12565398
Cs       3.03084465       9.39140995      16.25667695      -0.00468507       0.00144377      -0.00242528      -3.51646139
Pb       6.28131216      12.47421700      19.49970247       0.00012404      -0.00002488      -0.00202610      -4.40213794
I        9.40211775      11.64530219      19.40505630       0.00016514       0.00041162       0.00212816      -2.11282048
I        7.09848693      15.59283724      19.69540567       0.00048009       0.00057204      -0.00135102      -2.11225875
I        6.38515504      12.25833651      22.73608746      -0.00240613      -0.00059065       0.00328101      -2.12403871
Cs       3.29508528       9.32702512      22.73217607      -0.00026279      -0.00093233      -0.00025017      -3.52169686
Pb       0.00519229      12.46506438       0.02403140      -0.00059104       0.00001847       0.00261377      -4.40175662
I       -3.12413171      17.88164765      -0.05692237       0.00019558      -0.00043925       0.00038170      -2.11095217
I        0.82506163      15.58202336       0.21414222       0.00148454       0.00132231       0.00239870      -2.11055898
I        0.10958192      12.25220605       3.27738372      -0.00273962       0.00041617       0.00140883      -2.12615970
Cs       3.24302440      15.52129652       3.27797597       0.00220878       0.00164077      -0.00078341      -3.52146846
Pb       0.01199535      12.46839754       6.50126465      -0.00167163       0.00058933       0.00429578      -4.39629987
I       -3.11206097      19.51967001       6.61712305       0.00017809      -0.00039563      -0.00223406      -2.11200558
I       -0.81782160      15.58471829       6.33147592       0.00349253       0.00070712      -0.00937123      -2.11384880
I       -0.14414959      12.71671071       9.79278567      -0.01947048       0.00640898       0.00510239      -2.13994190
Cs       3.03174677      15.65178350       9.74977215      -0.00272923       0.00009752       0.00456300      -3.52082628
Pb      -0.00144413      18.70078629       0.03060670      -0.00034396      -0.00064368      -0.00025520      -4.40394798
I        3.11941872      19.52386401       0.11891054      -0.00025428       0.00007743      -0.00004252      -2.11091294
I       -0.82920116      21.81814846      -0.15370913      -0.00140184      -0.00063279      -0.00213461      -2.11069075
I       -0.09614969      18.92142148       3.27629178       0.00098117      -0.00049741      -0.00153855      -2.12395971
Cs      -3.23856862      15.63397013       3.26123167       0.00088656       0.00023376      -0.00192484      -3.52193829
Pb       0.00959623      18.70511264       6.51555829       0.00091539       0.00122649      -0.00083032      -4.40200642
I        3.12880653      17.87475432       6.42996981      -0.00064321      -0.00035823       0.00316033      -2.11348667
I        0.82455930      21.82255429       6.72163195      -0.00027804      -0.00089751       0.00024799      -2.11267238
I        0.09507418      18.47301209       9.76376182      -0.00442337      -0.00089603      -0.00020109      -2.12689899
Cs      -2.97356170      15.62071413       9.67667513       0.00267818       0.02055016      -0.01484723      -3.44924462
Pb       0.11046233      12.45187052      13.00314320      -0.02211385       0.00451519      -0.00049620      -4.17077261
I       -3.10139707      17.77903307      12.92549432       0.00007013      -0.01848255       0.00373295      -2.13706061
I        0.80478172      15.57718901      13.19474783       0.00283845      -0.01079382       0.00625398      -2.11855073
I        0.08898320      12.28471602      16.21636483      -0.01144229       0.00022327      -0.00576250      -2.13127241
Cs       3.26469648      15.54152762      16.26099027      -0.00162417       0.00385705      -0.00410069      -3.52168051
Pb       0.03480011      12.48649745      19.49932333       0.00095440      -0.00026729      -0.00019223      -4.39935213
I       -3.09038021      19.53506837      19.57045316      -0.00010744       0.00109707      -0.00191595      -2.11138991
I       -0.79378824      15.59872920      19.27595618       0.00745385       0.00026094       0.01195934      -2.11141114
I       -0.05987955      12.70724247      22.72362661       0.00118060       0.00145873       0.00301216      -2.12622114
Cs       3.05299530      15.65778188      22.73453653      -0.00037952      -0.00189962       0.00071961      -3.52172135
Pb       0.00949932      18.71457692      13.00419316      -0.00845866      -0.00258942       0.00026513      -4.39642426
I        3.13374252      19.54092663      13.09194273      -0.00760953      -0.00265088      -0.00082261      -2.11713119
I       -0.79417034      21.83533822      12.81922971      -0.00316828      -0.00053696      -0.00332185      -2.11936647
I       -0.09170672      18.91572352      16.24395212      -0.00319149      -0.00257593      -0.00015913      -2.12464479
Cs      -3.21985254      15.68966327      16.29494415      -0.00082031       0.00957735       0.00985687      -3.44386632
Pb       0.03102833      18.71679005      19.49347443       0.00066910       0.00194294       0.00051422      -4.40226766
I        3.15108553      17.88913316      19.40093908      -0.00039238       0.00088768       0.00254506      -2.11331690
I        0.84759928      21.83584123      19.68964210       0.00002303      -0.00061343      -0.00169374      -2.11354862
I        0.13412625      18.49965951      22.73275985      -0.00255583      -0.00138917       0.00106097      -2.12386561
Cs      -2.95698047      15.57485041      22.73013439      -0.00092681      -0.00017530       0.00057930      -3.52211373
159
Lattice="12.468885909578862 12.45567328789723 0.03660330624248233 -12.500938529614729 12.48755672392219 -0.009239974293740398 0.04511830023029706 0.02729054207635215 25.947711814671685" Properties=species:S:1:pos:R:3:forces:R:3:energies:R:1 energy=-454.03187996236426 stress="0.00016130259388017133 9.595890973062191e-05 1.8960053747510807e-05 9.595890973062191e-05 -5.447280201400695e-05 3.6244026047367436e-05 1.8960053747510807e-05 3.6244026047367436e-05 0.0005244547468730292" free_energy=-454.03187996236426 pbc="T T T"
Pb       0.01964716      -0.00757721       0.00961469      -0.00114984      -0.00014814       0.00012866      -4.40269319
I       -3.10841945       5.40869719      -0.06499224      -0.00001996       0.00036763       0.00260375      -2.11223268
I        0.83799517       3.11219819       0.20749940      -0.00022335      -0.00036954       0.00219556      -2.11146610
I        0.11426405      -0.22828988       3.25589266      -0.00451803      -0.00114994      -0.00018675      -2.12490995
Cs       3.25930329       3.05683093       3.26509792       0.00083264       0.00319352       0.00071341      -3.52637500
Pb       0.02058357      -0.00181166       6.49302160      -0.00241791      -0.00055962      -0.00117853      -4.40119888
I       -3.10193022       7.04427528       6.56482030      -0.00184283       0.00034990      -0.00129005      -2.11352319
I       -0.79066108       3.12100224       6.30708750      -0.00094850       0.00093295       0.00048979      -2.11272629
I       -0.03567576       0.21572421       9.75126937       0.00264669      -0.00102248       0.00290823      -2.13002035
Cs       3.02915922       3.16282648       9.74104549       0.00007917      -0.00393057      -0.00130522      -3.52103334
Pb       0.01535572       6.22957291       0.02301609       0.00059157      -0.00047431       0.00180805      -4.40300316
I        3.13492030       7.05371450       0.10112360      -0.00015062       0.00146528       0.00073266      -2.10923978
I       -0.81352532       9.35289198      -0.14347839       0.00132685      -0.00059987       0.00117623      -2.11587929
I       -0.05725809       6.46560823       3.26986376       0.00385999       0.00175748       0.00362981      -2.12510094
Cs      -3.22605967       3.15814601       3.25227818      -0.00105350      -0.00090238       0.00103430      -3.52087740
Pb       0.02206172       6.24152007       6.51012414      -0.00141385       0.00154525       0.00284152      -4.39991024
I        3.14038279       5.41563678       6.43371559      -0.00138662       0.00195125       0.00431174      -2.11396611
I        0.82080076       9.36976703       6.78062604      -0.00870790       0.00246099       0.01205646      -2.11677758
I        0.12219617       6.02637637       9.75898360      -0.00244003      -0.00215131       0.00201316      -2.12729201
Cs      -2.95020028       3.09004399       9.73551866       0.00043146      -0.00101778       0.00195939      -3.51890907
Pb       0.03185550       0.00807400      12.98768327      -0.00287224       0.00080009       0.00135426      -4.37313568
I       -3.08204190       5.43047324      12.90814168       0.00020301      -0.00296498       0.00225222      -2.11526505
I        0.86889159       3.11300870      13.18088307      -0.00267025       0.00294698       0.00102400      -2.11836207
I        0.15599708      -0.22170199      16.21677791      -0.00306701      -0.00242316      -0.00092900      -2.12605763
Cs       3.29261640       3.07067702      16.24427446       0.00498290       0.00150494      -0.00061188      -3.52316767
Pb       0.05774279       0.01278138      19.47112499       0.00063198       0.00040033       0.00069340      -4.40127493
I       -3.07212467       7.05784685      19.58732691       0.00110690      -0.00203989       0.00391272      -2.11651629
I       -0.76890276       3.12713894      19.27692004      -0.00057434      -0.00034988       0.00053197      -2.11113351
I       -0.02756463       0.23635013      22.71068940       0.00231282       0.00091904      -0.00031437      -2.12512028
Cs       3.05473939       3.17337592      22.71987763      -0.00094742      -0.00345062      -0.00023377      -3.52217907
Pb       0.04547943       6.22932973      13.00230166       0.00042517       0.00294504       0.00128981      -4.39596486
I        3.17731152       7.05838073      13.07860243       0.00205613       0.00238814      -0.00058286      -2.11994417
I       -0.79718729       9.36910904      12.87924096      -0.00925092       0.00291039      -0.00787406      -2.11442622
I       -0.03654115       6.45124141      16.24190646       0.00229975      -0.00191237       0.00166728      -2.12542937
Cs      -3.20085192       3.17609688      16.22805705      -0.00052336      -0.00232475      -0.00132830      -3.51828910
Pb       0.05364864       6.24274560      19.48799675       0.00117465      -0.00124425       0.00261942      -4.40270359
I        3.16895941       5.41511863      19.40107212       0.00027383      -0.00200836       0.00421040      -2.11100193
I        0.86562842       9.36704739      19.68387680       0.00114752      -0.00110503      -0.00395005      -2.11425216
I        0.14670983       6.03284417      22.72896136      -0.00038196      -0.00091845       0.00108187      -2.12235653
Cs      -2.93830775       3.09667096      22.71597117      -0.00028947      -0.00008874       0.00055278      -3.52217235
Pb      -6.23168403       6.23477618       0.00555910      -0.00098556      -0.00118939       0.00045290      -4.40431929
I       -9.35976764      11.65226344      -0.07454969      -0.00183130       0.00002276      -0.00145168      -2.11131467
I       -5.41451777       9.35554527       0.19446307      -0.00211606      -0.00054875      -0.00146017      -2.11210016
I       -6.13820603       6.01295482       3.24988288      -0.00216448      -0.00204907       0.00079123      -2.12280687
Cs      -2.99632269       9.28027850       3.24389780       0.00221470      -0.00399034      -0.00349457      -3.52165564
Pb      -6.22341269       6.23721848       6.48615985      -0.00279739      -0.00045707       0.00073225      -4.40099678
I       -9.36353563      13.30106089       6.57628103      -0.00280914      -0.00010809      -0.00409528      -2.10915461
I       -7.06256537       9.34908869       6.30518337      -0.00487868       0.00037678       0.00088545      -2.11274268
I       -6.32132679       6.45575777       9.73943427       0.00230924       0.00291281       0.00114620      -2.13198348
Cs      -3.22838260       9.34275643       9.72727997       0.00605214       0.00591988      -0.00446581      -3.53217717
Pb      -6.24050192      12.47300202       0.01035629      -0.00200777      -0.00016454      -0.00201219      -4.40275951
I       -3.11433653      13.29417299       0.11669522      -0.00113300      -0.00236489      -0.00005622      -2.11555237
I       -7.06572197      15.59017199      -0.17719328      -0.00008426       0.00094305      -0.00059263      -2.11139452
I       -6.34015615      12.68191656       3.24834465      -0.00870259      -0.00488587      -0.00100844      -2.11744587
Cs      -9.47585915       9.40471334       3.24099035      -0.00237437      -0.00006721      -0.00164599      -3.52304266
Pb      -6.24603412      12.46205078       6.47340831      -0.00454940      -0.00036165      -0.00316815      -4.40357576
I       -3.14209875      11.61605804       6.34645569      -0.00538246      -0.00110592      -0.00576901      -2.09797649
I       -5.47140459      15.59243199       6.59399352       0.00142099      -0.00156168      -0.00008726      -2.11389618
I       -6.14692183      12.28220319       9.75571426       0.00173673       0.00072257      -0.00048191      -2.12520046
Cs      -9.21213247       9.33533482       9.73476042      -0.00047684       0.00328262       0.00318695      -3.51850908
Pb      -6.20666557       6.25127806      12.98167324       0.00143299       0.00283663       0.00054311      -4.39088513
I       -9.19580021      11.71975442      12.94275902      -0.00793385       0.00174480       0.00851854      -2.12824999
I       -5.36120506       9.40254036      13.18330264       0.00193229       0.00136004      -0.00026796      -2.12907281
I       -6.10472157       6.04182067      16.22161827      -0.00004419      -0.00005851       0.00090050      -2.12990198
Cs      -2.98615118       9.22703869      16.30423960       0.00029028       0.00006367       0.00386135      -3.51344457
Pb      -6.19789522       6.25463948      19.47358613       0.00012826      -0.00034850       0.00127438      -4.39998302
I       -9.31605421      13.31618736      19.52948592       0.00117983      -0.00082190      -0.00563511      -2.11518591
I       -7.01158809       9.37798898      19.25442012       0.00230679       0.00060672      -0.00309242      -2.11526605
I       -6.28856288       6.48366477      22.70958668       0.00016708       0.00044217       0.00016541      -2.12257817
Cs      -3.18891625       9.42206582      22.73113766       0.00208001       0.00003470       0.00359192      -3.52134751
Pb      -6.26971647      12.47455402      12.96313564      -0.00001230       0.00131649       0.00182478      -4.17479414
I       -7.01033301      15.58734599      12.78882478      -0.00209941      -0.00030297      -0.00163220      -2.11875531
I       -6.16320012      12.76201041      16.18669095       0.01608176       0.00570441      -0.00094288      -2.13762800
Cs      -9.46048454       9.38974726      16.23331915      -0.00054111      -0.00381449       0.00116841      -3.51176983
Pb      -6.19134604      12.49313534      19.47733011       0.00219049       0.00079587      -0.00128739      -4.39688436
I       -3.07738498      11.66255305      19.41167993       0.00112232      -0.00106121       0.00474385      -2.10985735
I       -5.38193477      15.61159263      19.67826961      -0.00072190       0.00133884       0.00727000      -2.11450336
I       -6.10764642      12.27758105      22.70348428      -0.00304448      -0.00078324      -0.00244005      -2.12521501
Cs      -9.19103656       9.34327393      22.70923828       0.00085499       0.00004530      -0.00045686      -3.52159338
Pb       6.25367161       6.22339039       0.02460026      -0.00041245       0.00128550       0.00070573      -4.40578388
I        3.11890990      11.63250229      -0.02190044       0.00113290      -0.00047876       0.00243422      -2.11379971
I        7.07596035       9.34068694       0.22599802       0.00080618       0.00044237       0.00074393      -2.10949512
I        6.34910921       6.02352814       3.26691970      -0.00152193       0.00422774       0.00096694      -2.11796464
Cs       9.50073726       9.28891681       3.28355710       0.00040924       0.00240103       0.00139025      -3.51908580
Pb       6.25207734       6.23965161       6.48849063       0.00070650      -0.00046541       0.00120857      -4.39180769
I        3.08666934      13.27403682       6.74314430      -0.00519750      -0.00372518       0.01718443      -2.11724565
I        5.42881903       9.35025069       6.32604340      -0.00224809      -0.00032336       0.00199460      -2.11762045
I        6.23388763       6.40472977       9.76175038       0.00859130      -0.00524012       0.00090735      -2.15026198
Cs       9.28777592       9.42204421       9.76321794       0.00327834       0.00112023      -0.00014425      -3.51323024
Pb       6.24471867      12.45579524       0.04240688      -0.00087436       0.00004156       0.00157028      -4.40217263
I        9.36600508      13.27629743       0.12351951      -0.00041809       0.00015540       0.00042637      -2.11225140
I        5.42011675      15.57259109      -0.15018299      -0.00190869      -0.00024496       0.00103131      -2.10936679
I        6.13770499      12.68473382       3.29311195      -0.00453333       0.00182110       0.00265301      -2.12895069
Cs       2.99953410       9.38842858       3.27994197      -0.00796764       0.00214131       0.00440657      -3.51975003
Pb       6.23143920      12.47302254       6.53744417      -0.00458774       0.00036236       0.00242913      -4.39966119
I        9.35554373      11.64232572       6.44713665      -0.00392601       0.00183682      -0.00019911      -2.11328029
I        7.06661502      15.57909849       6.73645491       0.00044391      -0.00034096       0.00110107      -2.11360632
I        6.35967799      12.23682275       9.78163387       0.00499619      -0.00301704       0.00238432      -2.11946765
Cs       3.33960504       9.21557126       9.73905591      -0.00014820      -0.00153128       0.00157942      -3.49119605
Pb       6.29643234       6.23320581      13.02309791       0.00224520      -0.00258048      -0.00076772      -4.38821028
I        3.00250060      11.70836615      12.79311205      -0.01616467       0.01219640      -0.01393898      -2.14195903
I        7.09328264       9.35451656      13.19269569      -0.00377431      -0.00025619       0.00054140      -2.12208141
I        6.37338213       6.01074393      16.24932991      -0.00372769      -0.00104232      -0.00024954      -2.12359919
Cs       9.52312129       9.30539431      16.26172443       0.00123206       0.00162747      -0.00030008      -3.51841323
Pb       6.28488454       6.24399263      19.49788564      -0.00092090       0.00190759       0.00012947      -4.40306698
I        3.15804613      13.30434811      19.57865036       0.00013160       0.00021381      -0.00204759      -2.11386735
I        5.46151667       9.35752766      19.29369140      -0.00414418       0.00051245      -0.00279234      -2.11072582
I        6.20590567       6.46515722      22.73187535       0.00157483       0.00372091      -0.00017672      -2.12318408
Cs       9.29385358       9.40531463      22.73712406      -0.00150118      -0.00104259       0.00007964      -3.52119824
Pb       6.28703069      12.47841353      13.00665512      -0.00589829      -0.00124068      -0.00037905      -4.37100025
I        9.39316850      13.26224481      13.09337085      -0.00411560      -0.00923862       0.00054484      -2.12785640
I        5.46110879      15.59174263      12.83094234       0.00333614       0.00028800       0.00280935      -2.11763717
I        6.15995137      12.68456224      16.24213683      -0.00624423      -0.00348280      -0.00052503      -2.12966399
Cs       3.02371076       9.40143228      16.24361121      -0.00581634       0.00880736      -0.00532815      -3.51500949
Pb       6.27984876      12.47413499      19.50155868      -0.00031720      -0.00090001       0.00126427      -4.40050445
I        9.40266589      11.64930850      19.41364382      -0.00000811      -0.00000076       0.00117532      -2.11368314
I        7.09807798      15.59351172      19.69339772      -0.00047267      -0.00065360      -0.00033290      -2.11260042
I        6.37087401      12.25520104      22.74238698      -0.00237714      -0.00043522       0.00038727      -2.12547499
Cs       3.29648133       9.32702824      22.74097237      -0.00053089       0.00331314       0.00209708      -3.52212051
Pb       0.00561809      12.46809809       0.09009285       0.00126455       0.00048232      -0.00020031      -4.38898601
I       -3.12479143      17.88312974      -0.05045228      -0.00038309       0.00041349       0.00151709      -2.11161659
I        0.83065092      15.58103862       0.24070384      -0.00000143       0.00192571       0.00267109      -2.11247570
I        0.12048170      12.28583016       3.41109365       0.00266180       0.00246247      -0.01466964      -2.12666421
Cs       3.24471676      15.51243696       3.30264289      -0.00391945      -0.00865977       0.00787741      -3.52064826
Pb      -0.07008813      12.47579106       6.62188714      -0.00529532       0.00284821       0.00376383      -4.36644957
I       -3.11435418      19.51629480       6.61898577      -0.00011920       0.00146250      -0.00060493      -2.12097602
I       -0.83567969      15.58963799       6.35587119      -0.00214658       0.00377807      -0.00712728      -2.11500701
I       -0.86656360      12.75334173       9.97761240       0.11628483      -0.00018621      -0.09089691      -2.14180970
Cs       3.06067316      15.71442262       9.78065922      -0.01026073      -0.00231804       0.00686890      -3.49533200
Pb      -0.00156349      18.70051799       0.03426303      -0.00004745       0.00045117       0.00201462      -4.40402799
I        3.11834487      19.52314912       0.11615175      -0.00023801       0.00018232      -0.00133912      -2.10984338
I       -0.83022060      21.81636953      -0.15822812      -0.00038595       0.00050022      -0.00106894      -2.11107305
I       -0.09216608      18.91818950       3.28136527      -0.00037457       0.00261826       0.00259940      -2.12418299
Cs      -3.22580034      15.63449294       3.25677662       0.00230036      -0.00048959      -0.00094490      -3.52491597
Pb       0.01532812      18.70947817       6.51721959      -0.00116913       0.00230684       0.00052890      -4.39721263
I        3.12535550      17.86805132       6.43756606      -0.00267347      -0.00288443       0.00264646      -2.11488519
I        0.82092126      21.82448422       6.72261055      -0.00250836       0.00005608       0.00159458      -2.11187180
I        0.09816651      18.48102241       9.77170905      -0.00450577       0.00588621       0.00105841      -2.13456759
Cs      -3.14301670      15.95172277       9.59464381       0.01144647      -0.01156440      -0.00232021      -3.47165788
Pb       0.06462199      12.45476973      13.02466433      -0.01161125       0.00466884      -0.00478450      -4.14984384
I       -3.09537044      17.77236778      13.00753619      -0.00006811      -0.00864777       0.00134054      -2.14276714
I        0.85007961      15.56299671      13.20628697      -0.00369641       0.00292154      -0.00213031      -2.11917008
I        0.07336050      12.28095634      16.24645225       0.00116909       0.00719356      -0.00379817      -2.13184388
Cs       3.28220194      15.55799133      16.27319857      -0.00415143      -0.00111922      -0.00305578      -3.51829746
Pb       0.03740180      12.48277415      19.53844876       0.00099558      -0.00127398       0.00046449      -4.39482723
I       -3.09096869      19.53801883      19.55914038       0.00022389       0.00073683      -0.00236842      -2.11256652
I       -0.78175631      15.59690557      19.31935029       0.00282938       0.00029332       0.00792876      -2.11373131
I       -0.04217742      12.70520167      22.78624585       0.00473376      -0.00435386       0.00093615      -2.12573512
Cs       3.05076170      15.65231777      22.74050581      -0.00374310      -0.00243927       0.00234901      -3.52287263
Pb       0.01446076      18.69482042      13.01723892      -0.00152221      -0.00243090       0.00154047      -4.39389523
I        3.13427319      19.53393278      13.08768593      -0.00010086      -0.00162149      -0.00004596      -2.11896576
I       -0.78280742      21.82112375      12.81664980       0.00051344      -0.00179002       0.00141102      -2.11977451
I       -0.08259060      18.90989555      16.25306305       0.00424923      -0.00250675       0.00195731      -2.12483138
Cs      -3.21777453      15.70635683      16.34998570       0.00202118       0.00207888       0.00861129      -3.44576515
Pb       0.03114200      18.72094756      19.50251439       0.00085177       0.00074132       0.00290270      -4.40151942
I        3.15100485      17.89615521      19.41669980       0.00005591      -0.00043543       0.00233243      -2.11320955
I        0.84943373      21.83696656      19.68891750       0.00111335       0.00007744       0.00107219      -2.11390626
I        0.12749465      18.49799939      22.74094568      -0.00124885       0.00015148       0.00065145      -2.12290857
Cs      -2.96085884      15.57349146      22.74304392       0.00198572      -0.00380581       0.00423115      -3.52198369
159
Lattice="12.468885909578862 12.45567328789723 0.03660330624248233 -12.500938529614729 12.48755672392219 -0.009239974293740398 0.04511830023029706 0.02729054207635215 25.947711814671685" Properties=species:S:1:pos:R:3:forces:R:3:energies:R:1 energy=-453.87643845012144 stress="9.120626637706459e-05 9.398163239283786e-05 -8.040526094694384e-06 9.398163239283786e-05 -0.00014877262744121997 4.028511461457688e-05 -8.040526094694384e-06 4.028511461457688e-05 0.0005386257524237034" free_energy=-453.87643845012144 pbc="T T T"
Pb       0.01923784      -0.00744638       0.00909621      -0.00132845      -0.00002992      -0.00074319      -4.40211749
I       -3.10862239       5.40905561      -0.06458269       0.00009178       0.00040739       0.00211340      -2.11244223
I        0.83670839       3.11265869       0.20766101      -0.00038748      -0.00010581       0.00217894      -2.11187567
I        0.11127531      -0.22918881       3.25451145      -0.00554820      -0.00122422      -0.00011594      -2.12497172
Cs       3.26095160       3.05537786       3.26366085       0.00158581       0.00370820      -0.00049856      -3.52739724
Pb       0.02069389      -0.00289113       6.49075215      -0.00349759       0.00007674      -0.00227091      -4.40015803
I       -3.10199946       7.04248669       6.56329565      -0.00179023       0.00004620       0.00003363      -2.11456084
I       -0.79188605       3.12052083       6.30599857      -0.00042447       0.00085878       0.00133697      -2.11394771
I       -0.03183401       0.21183412       9.74921304       0.00490790      -0.00285127       0.00286540      -2.13352566
Cs       3.02942660       3.14867302       9.74180990       0.00159104      -0.00658327      -0.00313397      -3.52356910
Pb       0.01491894       6.22900468       0.02392953       0.00053327      -0.00121172       0.00231160      -4.40248139
I        3.13465154       7.05204610       0.09722522      -0.00040262       0.00115424      -0.00032445      -2.10996651
I       -0.81484967       9.35646536      -0.13598713       0.00158952       0.00142611       0.00337604      -2.11757295
I       -0.05799375       6.46521168       3.27074788       0.00376725       0.00106657       0.00372617      -2.12440007
Cs      -3.22611733       3.15719529       3.25096726      -0.00066195      -0.00111013       0.00077050      -3.52054203
Pb       0.02010888       6.23762724       6.50990223      -0.00083423       0.00293448       0.00443347      -4.39867454
I        3.13830425       5.41715169       6.43489276       0.00007494       0.00102156       0.00462431      -2.11396561
I        0.83628070       9.37206098       6.76788048      -0.00520286      -0.00110072       0.01115187      -2.11969950
I        0.12621721       6.02706723       9.75952036      -0.00071481      -0.00236191       0.00003686      -2.12772375
Cs      -2.94492736       3.08873442       9.73643190       0.00178492      -0.00233851       0.00280050      -3.51792176
Pb       0.04810508      -0.00253733      12.98890837      -0.00182744       0.00305636       0.00229267      -4.37326430
I       -3.07823377       5.43186230      12.90685188      -0.00060164      -0.00476927       0.00223831      -2.11594162
I        0.88172207       3.09950096      13.18163105      -0.00373765       0.00174662      -0.00028019      -2.11736914
I        0.15872484      -0.22438838      16.21821939      -0.00342296      -0.00294553      -0.00170465      -2.12635327
Cs       3.29721206       3.06576681      16.24476314       0.00742049       0.00085263      -0.00029270      -3.52498793
Pb       0.05816586       0.01215567      19.47163460       0.00109047       0.00056507       0.00106510      -4.40121403
I       -3.07186163       7.05708933      19.58855028       0.00157791      -0.00236064       0.00412766      -2.11684902
I       -0.76776500       3.12682832      19.27989173      -0.00093187      -0.00036837       0.00119147      -2.11091818
I       -0.02747775       0.23614604      22.71095473       0.00236274       0.00078477      -0.00015622      -2.12512638
Cs       3.05446502       3.17273066      22.72012473      -0.00079569      -0.00367470      -0.00035898      -3.52228783
Pb       0.05349733       6.21791484      13.00662297      -0.00029163       0.00830562       0.00072848      -4.39950803
I        3.18431617       7.04429690      13.08236928       0.00571225       0.00315075       0.00034107      -2.11768408
I       -0.75932810       9.35010767      12.90785749      -0.00989426       0.00215867      -0.00768545      -2.10518901
I       -0.03360337       6.44049539      16.24560167       0.00266544      -0.00374492       0.00303810      -2.12348215
Cs      -3.19825135       3.17647588      16.22995517       0.00012069      -0.00330988      -0.00197124      -3.51862680
Pb       0.05444677       6.24220008      19.48933049       0.00134770      -0.00212761       0.00211786      -4.40303311
I        3.16927212       5.41519054      19.40271910       0.00062512      -0.00226326       0.00472842      -2.11058235
I        0.86585508       9.36877319      19.68292958       0.00153391      -0.00047185      -0.00584043      -2.11523876
I        0.14589571       6.03438222      22.73117712      -0.00040237      -0.00035936       0.00108904      -2.12224768
Cs      -2.93776994       3.09652201      22.71640042      -0.00023829      -0.00013699       0.00048296      -3.52210294
Pb      -6.23160702       6.23482533       0.00392582      -0.00095128      -0.00118309       0.00008514      -4.40358174
I       -9.35993079      11.65335259      -0.07595483      -0.00187322       0.00037735      -0.00260059      -2.11198693
I       -5.41538568       9.35485560       0.19225647      -0.00215078      -0.00054621      -0.00290027      -2.11234990
I       -6.13627229       6.01087649       3.24869187      -0.00082578      -0.00257784       0.00054364      -2.12382289
Cs      -3.00664798       9.27409377       3.24635807       0.00070544      -0.00464179      -0.00334449      -3.52184676
Pb      -6.22181027       6.23806056       6.48057790      -0.00225834       0.00062456       0.00024128      -4.39814113
I       -9.36576415      13.29750006       6.56021495      -0.00405129       0.00069590      -0.00866567      -2.10747745
I       -7.06605650       9.34412324       6.29497151      -0.00555794      -0.00031467      -0.00109066      -2.11130542
I       -6.33173777       6.44432951       9.73867033       0.00007247       0.00092426       0.00078745      -2.14125291
Cs      -3.26051912       9.30460972       9.75280125       0.00709266       0.00988939       0.00142628      -3.53927058
Pb      -6.24124775      12.47211309       0.00532511      -0.00251349      -0.00038915      -0.00237248      -4.40313928
I       -3.11170814      13.29426052       0.12040624       0.00086045      -0.00253069      -0.00034503      -2.11688822
I       -7.06457174      15.59040585      -0.17680074       0.00027959       0.00097748      -0.00056974      -2.11188133
I       -6.33847938      12.67251935       3.23932485      -0.00740475      -0.00552823      -0.00211412      -2.11491747
Cs      -9.47769809       9.40702474       3.23672871      -0.00337295       0.00024832      -0.00295425      -3.52376913
Pb      -6.25299415      12.45489367       6.46863036      -0.00372235      -0.00108070      -0.00421865      -4.40586930
I       -3.13594987      11.60044699       6.36084270      -0.01133723      -0.00782007      -0.00866651      -2.10104430
I       -5.49323624      15.58996569       6.55951542       0.00296627      -0.00177091       0.00236183      -2.11533674
I       -6.25109121      12.25485714       9.73453650      -0.00350482      -0.00383591       0.00114653      -2.11115919
Cs      -9.21471762       9.34521557       9.73822187      -0.00321796       0.00346105       0.00433470      -3.52393916
Pb      -6.20348323       6.24977832      12.98702505       0.00439629       0.00356840       0.00082531      -4.38762917
I       -9.16794904      11.73059229      12.95852591      -0.01400007       0.00103165       0.01405267      -2.11993095
I       -5.35572877       9.39967709      13.18680902       0.00342938       0.00270554      -0.00011328      -2.13277925
I       -6.10489535       6.04056449      16.22263257       0.00084793       0.00017250       0.00085663      -2.13041581
Cs      -2.98776707       9.22499627      16.30805105       0.00211710       0.00019897       0.00376882      -3.51511249
Pb      -6.19757866       6.25533365      19.47508953       0.00028105      -0.00052315       0.00115778      -4.39959812
I       -9.31559061      13.31545454      19.52931380       0.00188748      -0.00125585      -0.00639980      -2.11578210
I       -7.01162002       9.37793365      19.25350391       0.00275100       0.00105379      -0.00355871      -2.11559371
I       -6.28819438       6.48404808      22.70977412       0.00003184       0.00069986       0.00010576      -2.12294260
Cs      -3.19099462       9.41887120      22.73311280       0.00177794      -0.00084713       0.00375601      -3.52110649
Pb      -6.23566542      12.48095368      12.93529594      -0.00179185       0.00103158       0.00287621      -4.19231012
I       -7.00352900      15.59005182      12.78784140      -0.00035807      -0.00096617      -0.00303528      -2.11730619
I       -6.15004937      12.76172440      16.17929801       0.02057333       0.00567240      -0.00264849      -2.13516899
Cs      -9.45718239       9.39509499      16.23056822       0.00016320      -0.00395516       0.00209946      -3.51227259
Pb      -6.19021517      12.49373108      19.46804639       0.00218224       0.00094962      -0.00245457      -4.39701772
I       -3.07607874      11.66156905      19.41935516       0.00130227      -0.00151713       0.00729559      -2.10925320
I       -5.38273261      15.61221926      19.67908363      -0.00104748       0.00122633       0.00709078      -2.11509232
I       -6.10761237      12.27835517      22.69792826      -0.00329243      -0.00069197      -0.00326548      -2.12432938
Cs      -9.19071991       9.34437989      22.70875337       0.00096681       0.00007459      -0.00085445      -3.52157381
Pb       6.25384424       6.22383657       0.02099514      -0.00028745       0.00137017       0.00064018      -4.40545182
I        3.11497631      11.63264852      -0.01574895      -0.00168057      -0.00006997       0.00432479      -2.11630904
I        7.07511569       9.34126325       0.22504529       0.00063465       0.00043241      -0.00003278      -2.10968263
I        6.34666951       6.03399514       3.26346014      -0.00158605       0.00506980       0.00171161      -2.11716619
Cs       9.50327789       9.29189668       3.27971684       0.00019717       0.00199335       0.00086352      -3.51826882
Pb       6.24600696       6.24317867       6.47853426       0.00111592      -0.00171624       0.00070419      -4.38521738
I        3.07960247      13.28272236       6.74466510      -0.00487918      -0.00264055       0.01982955      -2.11604140
I        5.43000889       9.35285327       6.32134446      -0.00149578      -0.00103468       0.00284906      -2.11885895
I        6.23653387       6.40459272       9.75931806       0.00849507      -0.00391950       0.00154958      -2.16329185
Cs       9.29693358       9.43938846       9.76657578       0.00585399       0.00273302      -0.00084116      -3.51014079
Pb       6.24481640      12.45598192       0.04229887       0.00010064       0.00037382       0.00126357      -4.40152080
I        9.36491864      13.27511441       0.12342444      -0.00056330       0.00002329      -0.00028370      -2.11266053
I        5.42077717      15.57258279      -0.15110306      -0.00186902      -0.00026805       0.00015545      -2.11003146
I        6.13794626      12.68622507       3.29246460      -0.00372338       0.00206432       0.00281622      -2.12897312
Cs       3.00869082       9.37874646       3.27371848      -0.00702325       0.00140208       0.00434213      -3.52009040
Pb       6.23374193      12.47429500       6.53686850      -0.00795721       0.00121187       0.00234510      -4.39864087
I        9.35387628      11.64215790       6.44356281      -0.00537699       0.00244303      -0.00078988      -2.11385557
I        7.06342240      15.57960816       6.74104331      -0.00013019      -0.00044306       0.00205329      -2.11486228
I        6.37204651      12.24574924       9.77829450       0.00433497      -0.00122966       0.00361179      -2.11911743
Cs       3.37319360       9.17659616       9.73190573       0.00363166      -0.00511453       0.00292321      -3.48617262
Pb       6.30138084       6.23136044      13.02894282       0.00275215      -0.00329601       0.00053850      -4.38584002
I        3.05146737      11.67744928      12.78071187      -0.01999966       0.01646199      -0.02402801      -2.14252218
I        7.10928691       9.35116827      13.18969225      -0.00458961       0.00106492      -0.00035804      -2.12242849
I        6.36906659       6.01230263      16.25037383      -0.00329326      -0.00125376      -0.00123623      -2.12279798
Cs       9.52907573       9.30475389      16.26265570       0.00267612       0.00109404      -0.00000013      -3.51877924
Pb       6.28466555       6.24427001      19.49858773      -0.00087578       0.00246261      -0.00073600      -4.40314847
I        3.15634518      13.30393169      19.57596400      -0.00078730      -0.00025350      -0.00317002      -2.11534275
I        5.46208090       9.35780852      19.29588900      -0.00538727       0.00090184      -0.00421399      -2.11046297
I        6.20730091       6.46517805      22.73109005       0.00194369       0.00387080      -0.00053079      -2.12345932
Cs       9.29394710       9.40582946      22.73680255      -0.00140612      -0.00099725      -0.00022711      -3.52106500
Pb       6.29858474      12.47298038      13.00648353      -0.00802120      -0.00217503      -0.00068034      -4.37474811
I        9.41607639      13.26414911      13.09475581      -0.00505037      -0.01306640       0.00080892      -2.12680446
I        5.47497243      15.58979345      12.84255281       0.00706786      -0.00124875       0.00552140      -2.11734485
I        6.16654938      12.68458543      16.24379695      -0.00563830      -0.00522572      -0.00242184      -2.12944148
Cs       3.02576009       9.39807262      16.24138940      -0.00817357       0.01101342      -0.00741727      -3.51492969
Pb       6.28040442      12.47424220      19.50080337       0.00012860      -0.00125421       0.00158326      -4.40038965
I        9.40290213      11.64978224      19.41492568      -0.00048413      -0.00006031       0.00124914      -2.11380398
I        7.09762831      15.59415425      19.69465172      -0.00070133      -0.00129127      -0.00037038      -2.11279676
I        6.36869202      12.25539067      22.74314981      -0.00303704      -0.00048389       0.00015243      -2.12551207
Cs       3.29843758       9.32641001      22.74176607      -0.00038799       0.00330033       0.00094498      -3.52163385
Pb       0.00381305      12.47039888       0.06729835       0.00018808       0.00071700       0.00212212      -4.37338086
I       -3.12486858      17.88349111      -0.04927972      -0.00030630       0.00035570       0.00145545      -2.11194579
I        0.83006160      15.57827532       0.24456483      -0.00062551      -0.00044758       0.00290125      -2.11415528
I        0.12130167      12.29752480       3.47992631       0.00033029       0.00710601       0.00343117      -2.13101905
Cs       3.25334027      15.51896009       3.29772010      -0.00297303      -0.00880453       0.00718915      -3.52075253
Pb      -0.07072925      12.46702545       6.57288400      -0.01368615       0.00215802       0.01731000      -4.27951761
I       -3.11427214      19.51401609       6.62274377      -0.00022856       0.00381251       0.00016620      -2.12840828
I       -0.83483228      15.57798754       6.37257690      -0.00403789       0.00529236      -0.00053552      -2.12233599
I       -1.54661155      12.83370495      10.40367897       0.10642810      -0.02151646      -0.14588273      -2.09930079
Cs       3.14999237      15.77661311       9.76935148       0.00174362       0.00474005       0.00498586      -3.47303599
Pb      -0.00199027      18.70061874       0.03394164      -0.00038518       0.00133561       0.00229510      -4.40320310
I        3.11811074      19.52206623       0.11599664      -0.00052069      -0.00025620      -0.00152639      -2.11041304
I       -0.82950203      21.81551271      -0.15808648      -0.00030873       0.00033434      -0.00141360      -2.11183836
I       -0.09420066      18.91368044       3.28306468      -0.00168045       0.00191754       0.00259316      -2.12445981
Cs      -3.22403059      15.63801004       3.25615492       0.00208486       0.00048263      -0.00013843      -3.52365029
Pb       0.02000513      18.71230146       6.51701183      -0.00103600       0.00042648       0.00120529      -4.39224552
I        3.12589730      17.87075282       6.42612648      -0.00198435      -0.00154908      -0.00075780      -2.11611120
I        0.81907302      21.82176883       6.71926636      -0.00241363       0.00079279       0.00043920      -2.11200664
I        0.12165621      18.48910341       9.77214880       0.00199762       0.00650726       0.00053343      -2.13725992
Cs      -3.18867984      16.13198856       9.54564709      -0.00165025       0.01293658      -0.00191619      -3.47606634
Pb       0.07345689      12.45134101      13.03933466      -0.01455223       0.00568208       0.00585394      -4.11508078
I       -3.08631665      17.77933497      13.03001418       0.00039730      -0.00885079       0.00571733      -2.14404053
I        0.89057867      15.55699072      13.19786596       0.00378237       0.00429569      -0.00491854      -2.11747179
I        0.03337752      12.29094587      16.24526542      -0.00479058       0.01044902       0.00566727      -2.13313088
Cs       3.29180889      15.56118055      16.27819074      -0.00439790      -0.00188042      -0.00291489      -3.51655710
Pb       0.03591082      12.48319973      19.53970765       0.00044639      -0.00136324      -0.00346244      -4.38987971
I       -3.09070265      19.53761981      19.55831792       0.00042455       0.00081136      -0.00264413      -2.11286796
I       -0.78164206      15.59607300      19.32420220       0.00257833      -0.00048320       0.01027325      -2.11369473
I       -0.04032807      12.70561527      22.79733620       0.00612006      -0.00578065       0.01393642      -2.13060373
Cs       3.05355195      15.65478333      22.74029390      -0.00328066      -0.00230090       0.00139768      -3.52253899
Pb       0.02621396      18.68344853      13.02115757       0.00111593      -0.00419361       0.00170455      -4.39409682
I        3.14052021      19.53475607      13.08841498       0.00336975      -0.00084424       0.00083859      -2.11898726
I       -0.77219292      21.81015023      12.81834074       0.00214733       0.00038301       0.00194552      -2.11940004
I       -0.07411299      18.90669791      16.25499683       0.00630779      -0.00329013       0.00314049      -2.12379195
Cs      -3.21954091      15.70084782      16.35457792       0.00279105       0.00038244       0.00955359      -3.44676058
Pb       0.03143275      18.72080575      19.50375841       0.00141110       0.00107676       0.00253172      -4.40175985
I        3.15153975      17.89751492      19.42084733       0.00025651      -0.00091603       0.00256067      -2.11308563
I        0.84900378      21.83643681      19.68942959       0.00157954      -0.00002016       0.00126185      -2.11359682
I        0.12690877      18.49703300      22.74276110      -0.00134441       0.00007540       0.00096311      -2.12279681
Cs      -2.96499531      15.57550400      22.74375742       0.00127558      -0.00329688       0.00422984      -3.52186953
159
Lattice="12.468885909578862 12.45567328789723 0.03660330624248233 -12.500938529614729 12.48755672392219 -0.009239974293740398 0.04511830023029706 0.02729054207635215 25.947711814671685" Properties=species:S:1:pos:R:3:forces:R:3:energies:R:1 energy=-453.80812174526227 stress="3.491173128448771e-05 9.001097833147941e-05 -1.496319249859701e-05 9.001097833147941e-05 -0.0002059110577427815 5.034887051414907e-05 -1.496319249859701e-05 5.034887051414907e-05 0.00048083556886314695" free_energy=-453.80812174526227 pbc="T T T"
Pb       0.01921935      -0.00732557       0.00850312      -0.00114324       0.00007290      -0.00118965      -4.40203477
I       -3.10857634       5.40912930      -0.06483612       0.00010142       0.00022726       0.00148907      -2.11219086
I        0.83619916       3.11304354       0.20748763      -0.00055315       0.00005851       0.00193939      -2.11200232
I        0.10979916      -0.22927911       3.25345438      -0.00608078      -0.00116253      -0.00068584      -2.12459422
Cs       3.26209895       3.05507636       3.26203036       0.00216530       0.00420226      -0.00175558      -3.52723222
Pb       0.02384010      -0.00208342       6.48910270      -0.00230119       0.00038574      -0.00267301      -4.39963512
I       -3.10102731       7.04245542       6.55980218      -0.00132387       0.00086408       0.00086201      -2.11550767
I       -0.79281457       3.12143280       6.30496239      -0.00035028       0.00078681       0.00141164      -2.11490773
I       -0.02803567       0.20986148       9.74698910       0.00736334      -0.00357490       0.00195791      -2.13523566
Cs       3.03304938       3.14122166       9.74240328       0.00267982      -0.00849661      -0.00400146      -3.52684360
Pb       0.01428937       6.22933936       0.02329760       0.00021688      -0.00086737       0.00214389      -4.40267862
I        3.13451850       7.05119042       0.09492745      -0.00044284       0.00067198      -0.00140610      -2.11049146
I       -0.81629519       9.35744820      -0.13716041       0.00099572       0.00133436       0.00290212      -2.11618356
I       -0.05941462       6.46648432       3.27029733       0.00334222       0.00161400       0.00299823      -2.12382549
Cs      -3.22594555       3.15680746       3.24925276      -0.00038894      -0.00113976       0.00037060      -3.52051374
Pb       0.01973881       6.23368194       6.50787265      -0.00066494       0.00172039       0.00439237      -4.39753682
I        3.13773655       5.41765952       6.43437150       0.00077221       0.00066413       0.00432605      -2.11386441
I        0.83932562       9.37783854       6.76163258      -0.00227633       0.00093729       0.00909778      -2.12084432
I        0.12706235       6.02641652       9.75752014       0.00002876      -0.00228029      -0.00176174      -2.12764318
Cs      -2.94251248       3.08726979       9.73829415       0.00254834      -0.00331658       0.00344300      -3.51725069
Pb       0.06841460      -0.01003226      12.98936387       0.00534790       0.00390126       0.00221828      -4.37496467
I       -3.07554124       5.43394418      12.90576302      -0.00083388      -0.00588974       0.00193643      -2.11572048
I        0.89135383       3.09213762      13.18202960      -0.00257848      -0.00053514      -0.00070929      -2.11617488
I        0.16143255      -0.22631760      16.21915758      -0.00302666      -0.00330197      -0.00157848      -2.12637731
Cs       3.30398920       3.06109678      16.24272115       0.01022165      -0.00068149      -0.00152264      -3.52592398
Pb       0.05889327       0.01196932      19.47154662       0.00150819       0.00052368       0.00089355      -4.40125276
I       -3.07166471       7.05679696      19.58869873       0.00172919      -0.00250829       0.00374083      -2.11689402
I       -0.76727405       3.12700956      19.28092934      -0.00103119      -0.00035592       0.00125437      -2.11079168
I       -0.02722917       0.23614478      22.71075436       0.00275073       0.00087779      -0.00022684      -2.12509552
Cs       3.05472037       3.17243183      22.71974212      -0.00058362      -0.00387775      -0.00075785      -3.52229916
Pb       0.06006190       6.21123081      13.00710473       0.00000752       0.00881262       0.00007048      -4.40287680
I        3.18895567       7.03373672      13.08284215       0.00759759       0.00224176       0.00073914      -2.11482279
I       -0.72567301       9.33701953      12.90592513      -0.00301967      -0.00028183      -0.00742890      -2.09880014
I       -0.03308067       6.43694361      16.24592193       0.00275247      -0.00452191       0.00359488      -2.12257997
Cs      -3.19709580       3.17638437      16.22986996       0.00076175      -0.00397973      -0.00265374      -3.51907222
Pb       0.05467801       6.24186949      19.48841898       0.00136207      -0.00306847       0.00096491      -4.40306924
I        3.16944387       5.41502210      19.40212878       0.00093204      -0.00240447       0.00419151      -2.11041782
I        0.86611435       9.37117285      19.67494864       0.00136472       0.00195373      -0.00906570      -2.11682584
I        0.14621947       6.03578195      22.73087768      -0.00005298       0.00002739       0.00072248      -2.12235471
Cs      -2.93757549       3.09653560      22.71649289      -0.00008380      -0.00014015       0.00026398      -3.52216233
Pb      -6.23099822       6.23541655       0.00305525      -0.00063637      -0.00097833      -0.00018344      -4.40343988
I       -9.35958919      11.65391827      -0.07676931      -0.00158788       0.00063407      -0.00281657      -2.11239427
I       -5.41415438       9.35447833       0.19265128      -0.00159578      -0.00061300      -0.00287929      -2.11219109
I       -6.13378243       6.01015637       3.24749018       0.00006307      -0.00293818       0.00015605      -2.12384069
Cs      -3.01243689       9.28074254       3.25496368      -0.00117046      -0.00188453      -0.00119925      -3.52164831
Pb      -6.22051182       6.23921421       6.47708389      -0.00109621       0.00112128      -0.00031234      -4.39701382
I       -9.36333918      13.29673926       6.54641955      -0.00316941       0.00118518      -0.01332655      -2.10583115
I       -7.06286433       9.34289404       6.28679416      -0.00414150      -0.00070476      -0.00324678      -2.10999533
I       -6.33326377       6.44125329       9.73731709      -0.00025893       0.00046598       0.00024684      -2.14610018
Cs      -3.26853288       9.28484146       9.76107872       0.00647668       0.00797701       0.00516539      -3.53922888
Pb      -6.24035485      12.47127158      -0.00057215      -0.00185275      -0.00043945      -0.00315293      -4.40353434
I       -3.10970486      13.29391346       0.11641441       0.00117933      -0.00221546      -0.00182938      -2.11640444
I       -7.06393683      15.59041843      -0.17692834       0.00056706       0.00093375      -0.00089336      -2.11219804
I       -6.33056883      12.66950656       3.23245597      -0.00304705      -0.00490479      -0.00335568      -2.11519148
Cs      -9.47822591       9.40821666       3.23427544      -0.00345187       0.00050215      -0.00352650      -3.52429601
Pb      -6.25321637      12.45307243       6.46689806      -0.00261745      -0.00153784      -0.00397688      -4.40701973
I       -3.11539693      11.60891338       6.40413408      -0.00425698      -0.00479707       0.00311744      -2.11039289
I       -5.49639599      15.58994699       6.55643544       0.00248134      -0.00174303       0.00175438      -2.11643685
I       -6.33246901      12.23565878       9.71071625      -0.02072745      -0.00669190      -0.00511787      -2.09612718
Cs      -9.21922879       9.34987352       9.74314940      -0.00624347       0.00279944       0.00588850      -3.52788767
Pb      -6.20158882       6.24884644      12.98939795       0.00685936       0.00397762       0.00087121      -4.38737456
I       -9.13936314      11.74449307      12.96898246      -0.00845941       0.00351649       0.01677964      -2.11177370
I       -5.35295108       9.39019737      13.18686192       0.00308768      -0.00091589       0.00025587      -2.13077747
I       -6.10477973       6.03987270      16.22346557       0.00133766       0.00011185       0.00059843      -2.13049148
Cs      -2.98983621       9.22191898      16.30608047       0.00141077      -0.00113950       0.00328718      -3.51637450
Pb      -6.19763108       6.25574404      19.47553048       0.00040050      -0.00049837       0.00065923      -4.39960822
I       -9.31488692      13.31522015      19.52805131       0.00274931      -0.00148379      -0.00737895      -2.11625087
I       -7.01180644       9.37791071      19.25200559       0.00300072       0.00147081      -0.00431325      -2.11568238
I       -6.28823850       6.48452855      22.70973242      -0.00006576       0.00109238      -0.00015485      -2.12322103
Cs      -3.19301991       9.41760415      22.73248044       0.00088952      -0.00152680       0.00360070      -3.52127014
Pb      -6.18181350      12.48645772      12.90179335       0.01281114       0.00201361      -0.00603396      -4.24086051
I       -6.99277389      15.59163532      12.78403202       0.00435445       0.00085091      -0.00546011      -2.11625023
I       -6.13490243      12.76209257      16.17365635       0.02661614       0.00564661      -0.00346227      -2.13309342
Cs      -9.45304855       9.40138726      16.22541974       0.00147565      -0.00245796       0.00102853      -3.51252464
Pb      -6.18866799      12.49467034      19.45606273       0.00199436       0.00131836      -0.00528937      -4.39765341
I       -3.07416151      11.66001138      19.42019175       0.00327188      -0.00234641       0.00783693      -2.10864443
I       -5.38275724      15.61292272      19.67992768      -0.00114529       0.00103170       0.00643661      -2.11538289
I       -6.10744763      12.27839604      22.69279815      -0.00375795      -0.00077805      -0.00507852      -2.12352087
Cs      -9.19015673       9.34531022      22.70804257       0.00110091       0.00034424      -0.00127755      -3.52146437
Pb       6.25390219       6.22391059       0.01941223      -0.00023817       0.00128826       0.00023689      -4.40504065
I        3.11426919      11.63244808      -0.01917603      -0.00166347      -0.00030090       0.00307504      -2.11563322
I        7.07471124       9.34134097       0.22415518       0.00055386       0.00032221      -0.00040502      -2.10984636
I        6.34585242       6.03716829       3.26229403      -0.00162529       0.00495113       0.00172194      -2.11786378
Cs       9.50399848       9.29255863       3.27728954       0.00021236       0.00160902       0.00026812      -3.51795808
Pb       6.24441301       6.24461308       6.47733032       0.00061258      -0.00177648       0.00068482      -4.38377977
I        3.08494555      13.29095668       6.73108810      -0.00370156      -0.00032637       0.01367244      -2.11771267
I        5.42896335       9.35368190       6.32150321      -0.00138188      -0.00110853       0.00398156      -2.11889951
I        6.23462499       6.40917386       9.75691029       0.00869393      -0.00249485       0.00183205      -2.16406109
Cs       9.30001727       9.44855212       9.76848949       0.00689794       0.00282870      -0.00087585      -3.50899942
Pb       6.24494715      12.45596515       0.04073207      -0.00003599       0.00031005       0.00105560      -4.40166263
I        9.36487432      13.27464356       0.12274999      -0.00047636      -0.00012089      -0.00099540      -2.11272258
I        5.42135460      15.57281005      -0.15235807      -0.00145917      -0.00014025      -0.00076264      -2.11067726
I        6.13991785      12.68614449       3.29090174      -0.00266691       0.00174292       0.00241047      -2.12849097
Cs       3.01558957       9.37134773       3.26889956      -0.00380711      -0.00127241       0.00270871      -3.51995334
Pb       6.24267139      12.47181780       6.53470213      -0.00568451       0.00067144       0.00128030      -4.39796086
I        9.35737012      11.63982687       6.44099956      -0.00459667       0.00200284      -0.00093488      -2.11489705
I        7.06278256      15.57944955       6.74262955      -0.00023343      -0.00077947       0.00245357      -2.11514112
I        6.37819261      12.25122204       9.77496259       0.00357979       0.00000054       0.00350514      -2.11912852
Cs       3.37202674       9.17404148       9.73485516       0.00301641      -0.00370398       0.00502790      -3.48569083
Pb       6.30603653       6.22811200      13.02712985       0.00316824      -0.00408741       0.00065853      -4.38748402
I        3.11482928      11.64577293      12.80764637      -0.00403054       0.00801798      -0.01456317      -2.13678733
I        7.12247366       9.34772972      13.18837116      -0.00264395       0.00138069      -0.00058710      -2.12045183
I        6.36958735       6.01318763      16.24978201      -0.00327361      -0.00110068      -0.00142095      -2.12309469
Cs       9.53259047       9.30445799      16.26353675       0.00368947       0.00106710      -0.00012597      -3.51919804
Pb       6.28490051       6.24415025      19.49762990      -0.00081377       0.00264508      -0.00105090      -4.40306800
I        3.15445125      13.30373063      19.56719645      -0.00270561      -0.00069258      -0.00680896      -2.11668960
I        5.46257424       9.35789046      19.29675080      -0.00550741       0.00129552      -0.00471749      -2.11054954
I        6.20755200       6.46525629      22.73037322       0.00205648       0.00373424      -0.00080607      -2.12346614
Cs       9.29387414       9.40602682      22.73650071      -0.00138489      -0.00089275      -0.00044361      -3.52105054
Pb       6.31171386      12.46879155      13.00822338      -0.00464990      -0.00254081      -0.00038226      -4.38225579
I        9.44107332      13.26527904      13.09598038       0.00145385      -0.01276998       0.00088460      -2.12450010
I        5.48265880      15.58675755      12.85076843       0.00877450      -0.00272082       0.00670728      -2.11722254
I        6.17522431      12.68554187      16.24614069      -0.00233902      -0.00502341      -0.00284685      -2.12753885
Cs       3.02955733       9.39242123      16.23991098      -0.00727127       0.00925560      -0.00793718      -3.51486199
Pb       6.28132367      12.47446696      19.49895237       0.00101942      -0.00132838       0.00144812      -4.40074219
I        9.40339704      11.64999442      19.41573539      -0.00065201       0.00018238       0.00164756      -2.11380189
I        7.09722178      15.59460129      19.69553541      -0.00090196      -0.00154270      -0.00025597      -2.11266532
I        6.36766812      12.25577089      22.74290184      -0.00331964      -0.00039607      -0.00055590      -2.12525408
Cs       3.29867969       9.32526519      22.73953046      -0.00042954       0.00267001      -0.00025518      -3.52134573
Pb       0.00365107      12.47035893       0.03975325       0.00010658       0.00065575      -0.00553174      -4.37264691
I       -3.12489846      17.88375622      -0.04943229      -0.00024353       0.00054767       0.00130812      -2.11225756
I        0.82911393      15.57687267       0.24101322      -0.00090183      -0.00060914       0.00191306      -2.11391626
I        0.12251440      12.28892784       3.44853992       0.00095222       0.00407138      -0.01321212      -2.13725187
Cs       3.25916998      15.52478157       3.29009694      -0.00080230      -0.00624820       0.00419730      -3.52069471
Pb      -0.03382984      12.46090579       6.49106936      -0.00513623       0.00044400       0.00612210      -4.21328580
I       -3.11330898      19.51215722       6.62459576       0.00014502       0.00439816       0.00080638      -2.13120743
I       -0.82363304      15.57148590       6.35853923      -0.00211375       0.00170799      -0.00171517      -2.12749808
I       -2.09626217      12.87439239      10.91104361      -0.03517510      -0.01873040      -0.02277755      -2.07212205
Cs       3.20385127      15.80657308       9.75918173       0.01318605       0.00990975       0.00222802      -3.47047341
Pb      -0.00190404      18.70051984       0.03234390      -0.00026136       0.00114821       0.00180909      -4.40309159
I        3.11825241      19.52166166       0.11552475      -0.00042063      -0.00039666      -0.00173647      -2.11078566
I       -0.82920081      21.81534712      -0.15882961      -0.00010403       0.00026600      -0.00197015      -2.11196453
I       -0.09496690      18.91552637       3.28155840      -0.00205275       0.00244708       0.00206069      -2.12396215
Cs      -3.22871957      15.64031156       3.25285425       0.00001891       0.00133331      -0.00062344      -3.52153473
Pb       0.02336288      18.71638334       6.51417944       0.00003753       0.00020925       0.00057279      -4.39003370
I        3.12714769      17.87504679       6.41596502      -0.00123882      -0.00063732      -0.00293387      -2.11621604
I        0.82012608      21.82218653       6.71687158      -0.00185212       0.00082920      -0.00044447      -2.11222193
I        0.13564952      18.49188570       9.76901033       0.00427249       0.00547687      -0.00035699      -2.13835430
Cs      -3.18180453      16.18206791       9.52019789       0.00108213       0.02245466      -0.00674442      -3.47350767
Pb       0.09334728      12.44567142      13.05539898      -0.00491587       0.00220665       0.00740940      -4.09312990
I       -3.08149414      17.78422412      13.02894558       0.00098447      -0.00438044       0.00768546      -2.14139671
I        0.90643433      15.55314138      13.18569715       0.00747692       0.00036633      -0.00897781      -2.11720221
I       -0.01419422      12.30324605      16.20528210      -0.02106163       0.01486774      -0.00203543      -2.14313193
Cs       3.29611333      15.56487667      16.27625055      -0.00292028      -0.00074760      -0.00381092      -3.51509617
Pb       0.03412535      12.48461111      19.53404509      -0.00020723      -0.00059320      -0.00228154      -4.38240477
I       -3.09033055      19.53762000      19.55849236       0.00058076       0.00093149      -0.00266991      -2.11299418
I       -0.78192046      15.59560501      19.32299209       0.00228090      -0.00241931       0.00947799      -2.11349526
I       -0.04066241      12.70595583      22.77703934       0.00655226      -0.00598360       0.00431875      -2.13354626
Cs       3.05550972      15.65553303      22.73821779      -0.00262759      -0.00233996       0.00023277      -3.52238359
Pb       0.03034812      18.67936728      13.01996118       0.00252867      -0.00359689       0.00148006      -4.39427422
I        3.14322167      19.53401920      13.08990233       0.00527443      -0.00038887       0.00161518      -2.11941827
I       -0.76660123      21.80426894      12.81875526       0.00401647       0.00143744       0.00139058      -2.11978429
I       -0.07198863      18.90342110      16.25380479       0.00748270      -0.00383529       0.00310827      -2.12335054
Cs      -3.22208438      15.70058468      16.35240023       0.00249840       0.00011797       0.00887697      -3.44973140
Pb       0.03187960      18.72115463      19.50288069       0.00186758       0.00192522       0.00163175      -4.40197318
I        3.15174737      17.89746851      19.42184420       0.00038794      -0.00119003       0.00212118      -2.11293560
I        0.84946496      21.83619869      19.68880649       0.00193912      -0.00015994       0.00079734      -2.11325933
I        0.12660202      18.49655142      22.74185570      -0.00131814       0.00023931       0.00045757      -2.12257517
Cs      -2.96721504      15.57684365      22.74297502       0.00078688      -0.00248191       0.00374650      -3.52198031
159
Lattice="12.468885909578862 12.45567328789723 0.03660330624248233 -12.500938529614729 12.48755672392219 -0.009239974293740398 0.04511830023029706 0.02729054207635215 25.947711814671685" Properties=species:S:1:pos:R:3:forces:R:3:energies:R:1 energy=-453.88244393010615 stress="5.9918635646931485e-05 8.892059566615679e-05 -1.9943999313930378e-05 8.892059566615679e-05 -0.0001710716460815216 5.331443721457862e-05 -1.9943999313930378e-05 5.331443721457862e-05 0.0005409943235636473" free_energy=-453.88244393010615 pbc="T T T"
Pb       0.01944791      -0.00737634       0.00830207      -0.00091342       0.00008824      -0.00163874      -4.40209101
I       -3.10845696       5.40918713      -0.06527280       0.00012536       0.00003969       0.00078593      -2.11196144
I        0.83597483       3.11342141       0.20689307      -0.00070980       0.00022598       0.00139979      -2.11208758
I        0.10950150      -0.22951483       3.25268975      -0.00637286      -0.00133228      -0.00129411      -2.12415324
Cs       3.26224549       3.05624505       3.26099328       0.00223653       0.00474654      -0.00266500      -3.52672246
Pb       0.02612204      -0.00229704       6.48891232      -0.00189898       0.00040563      -0.00299809      -4.39957720
I       -3.09966191       7.05365167       6.57361618      -0.00072103       0.00275982       0.00286813      -2.11550217
I       -0.79446197       3.12123568       6.30371349      -0.00083408       0.00089689       0.00133965      -2.11552632
I       -0.02495992       0.20991181       9.74430817       0.00907080      -0.00334864       0.00156703      -2.13539516
Cs       3.03442673       3.13879069       9.74553595       0.00312236      -0.01002312      -0.00375411      -3.52902442
Pb       0.01393168       6.22972603       0.02192339      -0.00003917      -0.00050749       0.00149108      -4.40265373
I        3.13456213       7.05081743       0.09349432      -0.00052818       0.00029836      -0.00219450      -2.11086476
I       -0.81745507       9.35813435      -0.13966152       0.00032659       0.00134103       0.00236782      -2.11515211
I       -0.06218664       6.46742603       3.26879112       0.00176609       0.00193136       0.00265923      -2.12418711
Cs      -3.22634801       3.15647696       3.24857403      -0.00037811      -0.00133087      -0.00015679      -3.51983554
Pb       0.01768154       6.23134475       6.50733239      -0.00016420       0.00161295       0.00378615      -4.39804588
I        3.13733012       5.41760643       6.43504748       0.00102202       0.00046831       0.00402481      -2.11339578
I        0.84516133       9.37879344       6.75604548      -0.00020441       0.00152078       0.00792743      -2.12134318
I        0.12886190       6.02187289       9.75409501       0.00115631      -0.00330808      -0.00137595      -2.12508907
Cs      -2.94236955       3.08609785       9.74079054       0.00292527      -0.00390698       0.00388876      -3.51766320
Pb       0.09581725      -0.01341398      12.98878090       0.01235602       0.00146326       0.00222101      -4.37984289
I       -3.07412795       5.43694253      12.90476757       0.00048660      -0.00610059       0.00132094      -2.11512547
I        0.89322266       3.09459007      13.18362558      -0.00044497       0.00042282       0.00007242      -2.11587776
I        0.16324587      -0.22620122      16.22060451      -0.00282381      -0.00306753      -0.00156862      -2.12617976
Cs       3.31164994       3.05537883      16.23709749       0.01420872      -0.00326257      -0.00342500      -3.52531083
Pb       0.06019001       0.01148666      19.47071680       0.00175099       0.00053160       0.00048325      -4.40117608
I       -3.07164350       7.05697177      19.58759389       0.00171051      -0.00289295       0.00305557      -2.11656472
I       -0.76640770       3.12809940      19.27967600      -0.00053552      -0.00043148       0.00049868      -2.11095382
I       -0.02661596       0.23651918      22.71048557       0.00349181       0.00105622      -0.00027265      -2.12518256
Cs       3.05556765       3.17285663      22.71835876      -0.00050465      -0.00388267      -0.00176245      -3.52176479
Pb       0.06239178       6.21139469      13.00143361       0.00165120       0.00683968      -0.00063269      -4.40384710
I        3.19119166       7.02786667      13.08184750       0.00777801      -0.00032919       0.00087943      -2.11386162
I       -0.70751884       9.33948972      12.86290718      -0.00346489      -0.00007619      -0.01434501      -2.09924798
I       -0.03570142       6.44704352      16.24173320       0.00268312      -0.00363428       0.00207202      -2.12366197
Cs      -3.19612217       3.17534048      16.22715830       0.00129340      -0.00444597      -0.00311344      -3.51958245
Pb       0.05469928       6.24258721      19.48458703       0.00165397      -0.00293711       0.00013673      -4.40254396
I        3.16999158       5.41479931      19.39856878       0.00131348      -0.00246382       0.00212893      -2.11075113
I        0.86626118       9.37544199      19.66368779       0.00155554       0.00241520      -0.01061776      -2.11792150
I        0.14680571       6.03832292      22.72800925       0.00050806       0.00049102       0.00038412      -2.12281305
Cs      -2.93759259       3.09668371      22.71607397       0.00018952      -0.00005695      -0.00017197      -3.52215226
Pb      -6.23058664       6.23591826       0.00305833      -0.00030271      -0.00067653      -0.00050826      -4.40328364
I       -9.35888008      11.65423342      -0.07713340      -0.00117849       0.00070741      -0.00310764      -2.11254600
I       -5.41298295       9.35447738       0.19333433      -0.00100775      -0.00056252      -0.00259808      -2.11203761
I       -6.13096783       6.01080184       3.24750603       0.00159886      -0.00273457      -0.00001572      -2.12452765
Cs      -3.01574889       9.28385675       3.26196243      -0.00224456      -0.00039905       0.00053879      -3.52070793
Pb      -6.21717247       6.24116056       6.47885329      -0.00023083       0.00073355      -0.00048179      -4.39790863
I       -9.36117381      13.29817873       6.53848376      -0.00190923       0.00164475      -0.01637642      -2.10507294
I       -7.05929552       9.34308640       6.28136308      -0.00278233       0.00028606      -0.00464162      -2.10859611
I       -6.33105208       6.44465466       9.73653766      -0.00031808       0.00107030       0.00003193      -2.14378366
Cs      -3.27126469       9.32409747       9.77041805       0.00120064       0.00845263       0.00628664      -3.52975410
Pb      -6.23899792      12.47111442      -0.00682697      -0.00130748      -0.00039149      -0.00398137      -4.40386217
I       -3.10776960      13.29468752       0.11165647       0.00149623      -0.00163076      -0.00287586      -2.11582405
I       -7.06394417      15.59036286      -0.17802715       0.00048814       0.00076042      -0.00162139      -2.11197218
I       -6.32328538      12.67236007       3.22651717      -0.00007439      -0.00454207      -0.00374809      -2.11580601
Cs      -9.47818018       9.40804700       3.23379398      -0.00362212       0.00055595      -0.00420440      -3.52408316
Pb      -6.25436938      12.45385858       6.46293197      -0.00312313      -0.00138459      -0.00556327      -4.40653114
I       -3.10024539      11.62234516       6.43512471      -0.00138976      -0.00156650       0.00998733      -2.11831212
I       -5.48998871      15.58947520       6.56665473       0.00241939      -0.00255164       0.00196437      -2.11675146
I       -6.37635980      12.22008539       9.69033966      -0.03023552      -0.00872676      -0.01236151      -2.08886054
Cs      -9.22477487       9.35257100       9.75000245      -0.00933743       0.00217383       0.00781638      -3.53055996
Pb      -6.20051430       6.24846830      12.98761430       0.00790078       0.00475302       0.00078398      -4.38958252
I       -9.12830298      11.75937600      12.97173670      -0.00039137       0.00762019       0.01763087      -2.10504541
I       -5.35439581       9.38189201      13.18314632       0.00557440      -0.00416537      -0.00364588      -2.12446466
I       -6.10424493       6.03975509      16.22339828       0.00151147      -0.00035854       0.00014831      -2.13065695
Cs      -2.99323133       9.21776987      16.29879475       0.00023942      -0.00181349       0.00208922      -3.51686996
Pb      -6.19839051       6.25631017      19.47444593       0.00040144      -0.00039682       0.00039689      -4.39982881
I       -9.31282786      13.31540417      19.52496566       0.00355812      -0.00150083      -0.00915307      -2.11721291
I       -7.01197325       9.37855053      19.24948302       0.00297595       0.00147454      -0.00546525      -2.11544174
I       -6.28843491       6.48492985      22.70953670      -0.00027324       0.00146345      -0.00033816      -2.12349521
Cs      -3.19441948       9.41726264      22.73029036       0.00017174      -0.00194614       0.00351858      -3.52140147
Pb      -6.09970778      12.49495761      12.86414153       0.02234583       0.00214217      -0.01373573      -4.31482113
I       -6.98061000      15.59371289      12.77953860       0.00907277       0.00332897      -0.00826282      -2.11446903
I       -6.10781010      12.76084982      16.16871722       0.03463172       0.00445562      -0.00417690      -2.13396352
Cs      -9.44853291       9.41067923      16.21633833       0.00291885       0.00011349      -0.00154899      -3.51252190
Pb      -6.18545326      12.49721802      19.44302996       0.00344079       0.00149196      -0.00825357      -4.39849135
I       -3.07032534      11.65659296      19.41533331       0.00427360      -0.00415376       0.00792750      -2.10847191
I       -5.37560507      15.61293528      19.67014859      -0.00014814       0.00088901       0.00438222      -2.11268258
I       -6.10560836      12.27923090      22.68747982      -0.00391309      -0.00024642      -0.00640157      -2.12338849
Cs      -9.18978071       9.34592973      22.70671644       0.00114656       0.00063381      -0.00195880      -3.52108379
Pb       6.25423491       6.22338246       0.01871266      -0.00022881       0.00101535      -0.00049054      -4.40480284
I        3.11380000      11.63204799      -0.02370171      -0.00152498      -0.00063208       0.00179709      -2.11491275
I        7.07446934       9.34115753       0.22445000       0.00043460       0.00020156      -0.00056556      -2.11011241
I        6.34595363       6.03422434       3.26202839      -0.00194181       0.00453155       0.00117454      -2.11902194
Cs       9.50397615       9.29110239       3.27726965       0.00051493       0.00113352       0.00025036      -3.51804015
Pb       6.24599719       6.24193995       6.47970115       0.00072255      -0.00117524       0.00107951      -4.38534729
I        3.08972396      13.29459060       6.72069860      -0.00283812       0.00122339       0.01001358      -2.12003350
I        5.43071471       9.35263907       6.32321249      -0.00087076      -0.00137745       0.00428101      -2.11866305
I        6.24109150       6.40632780       9.75501647       0.00888125      -0.00150289       0.00147456      -2.16036630
Cs       9.29915911       9.44017964       9.76888954       0.00729022       0.00268847      -0.00105210      -3.51002794
Pb       6.24495658      12.45588202       0.03970048      -0.00022336       0.00017472       0.00075884      -4.40177507
I        9.36492737      13.27453541       0.12224579      -0.00041906      -0.00030193      -0.00145795      -2.11272231
I        5.42146781      15.57295916      -0.15358165      -0.00095662       0.00002528      -0.00102059      -2.11110715
I        6.14067768      12.68580295       3.28998320      -0.00201747       0.00153537       0.00154726      -2.12820769
Cs       3.02085294       9.36643873       3.26637806      -0.00150401      -0.00262042       0.00173875      -3.51992117
Pb       6.24978347      12.46915669       6.53380905      -0.00392738      -0.00000408       0.00143931      -4.39786420
I        9.36038909      11.63756107       6.44079226      -0.00325307       0.00072869      -0.00037556      -2.11537754
I        7.06303953      15.57919378       6.74279809       0.00081533      -0.00047444       0.00299681      -2.11492718
I        6.37859444      12.25179633       9.77279260       0.00262253      -0.00059531       0.00279854      -2.11905092
Cs       3.37489539       9.17523330       9.74159408       0.00336831      -0.00115308       0.00840331      -3.48679002
Pb       6.31002236       6.22290112      13.02453765       0.00439933      -0.00485909      -0.00022023      -4.39051110
I        3.15809611      11.62525633      12.85145761       0.00045090       0.00512004      -0.00037425      -2.12798989
I        7.13125365       9.34515510      13.18785301      -0.00027811       0.00027751      -0.00032800      -2.11854516
I        6.37868347       6.00802001      16.24846607      -0.00202142      -0.00154296      -0.00189907      -2.12170934
Cs       9.53405446       9.30386595      16.26441090       0.00454162       0.00142797       0.00000393      -3.51976957
Pb       6.28797945       6.24120815      19.49436883      -0.00013107       0.00214252      -0.00185644      -4.40404995
I        3.15222578      13.30469299      19.55706255      -0.00283860      -0.00065231      -0.00980618      -2.11775014
I        5.46426314       9.35716757      19.29655417      -0.00435546       0.00092078      -0.00448055      -2.11104825
I        6.20773011       6.46374243      22.72934515       0.00196363       0.00278693      -0.00119480      -2.12378217
Cs       9.29354675       9.40565679      22.73627733      -0.00138498      -0.00063457      -0.00036111      -3.52123516
Pb       6.32363559      12.46686462      13.01017715      -0.00736219      -0.00412364       0.00010911      -4.38996815
I        9.45782520      13.26481829      13.09649320       0.00876573      -0.01135351       0.00031138      -2.12063023
I        5.48332289      15.58399851      12.85030243       0.00910469      -0.00132860       0.00623278      -2.11746942
I        6.18377669      12.68825686      16.24865117       0.00167371      -0.00359138      -0.00200917      -2.12538476
Cs       3.03745659       9.38574929      16.23993547      -0.00537006       0.00664465      -0.00813221      -3.51419731
Pb       6.28250127      12.47442816      19.49711072       0.00125956      -0.00106458       0.00084472      -4.40121160
I        9.40384903      11.65063204      19.41646975       0.00030590       0.00107114       0.00213161      -2.11369621
I        7.09667707      15.59477380      19.69604763      -0.00099147      -0.00096015      -0.00013657      -2.11221264
I        6.36624056      12.25594832      22.74240805      -0.00359787      -0.00041363      -0.00009354      -2.12505997
Cs       3.29787868       9.32399421      22.73555838      -0.00054393       0.00188033      -0.00114818      -3.52104942
Pb       0.00360094      12.47011497       0.02082021       0.00036349       0.00058555      -0.01061594      -4.37196782
I       -3.12485871      17.88284093      -0.05011087      -0.00012590       0.00048498       0.00105048      -2.11217449
I        0.82910897      15.57546592       0.23536536      -0.00056411      -0.00073006       0.00120834      -2.11366006
I        0.12411484      12.28292631       3.41911040       0.00149649       0.00257555      -0.01661697      -2.14230446
Cs       3.26277760      15.52958063       3.28517178       0.00037643      -0.00412968       0.00258651      -3.52043487
Pb      -0.00706634      12.45535096       6.44428504       0.00118719      -0.00080743      -0.00196650      -4.17802835
I       -3.11151938      19.50811342       6.62251839       0.00046703       0.00283010       0.00026051      -2.12943218
I       -0.81541810      15.56248252       6.36070243      -0.00307432      -0.00111228       0.00282903      -2.12920544
I       -2.57334676      12.95951396      11.49885801      -0.13580484       0.00937144       0.10898360      -2.10504342
Cs       3.20956628      15.80887668       9.75719148       0.01312242       0.00937695       0.00181489      -3.46909544
Pb      -0.00205255      18.69985506       0.03006587      -0.00017367       0.00070703       0.00098234      -4.40294011
I        3.11821236      19.52145356       0.11534116      -0.00032636      -0.00047309      -0.00204744      -2.11104787
I       -0.82900989      21.81501315      -0.15909887       0.00013047      -0.00004778      -0.00234356      -2.11210002
I       -0.09529946      18.91315623       3.27944945      -0.00167980       0.00145189       0.00160806      -2.12434147
Cs      -3.23048893      15.64245150       3.25365643       0.00035605       0.00138463      -0.00045605      -3.52074446
Pb       0.02526168      18.71606324       6.51270882       0.00019365      -0.00036991       0.00041848      -4.39014028
I        3.12978062      17.87643732       6.41489632      -0.00054295      -0.00028356      -0.00347190      -2.11577492
I        0.82077650      21.82090920       6.71541110      -0.00170697       0.00018632      -0.00111544      -2.11259292
I        0.13723984      18.49242588       9.76546860       0.00310425       0.00431381      -0.00049313      -2.13710924
Cs      -3.16200789      16.13960773       9.53039759       0.00413468       0.01243140      -0.00833596      -3.47193619
Pb       0.09383144      12.44544659      13.05505545       0.00086179       0.00048455      -0.00129714      -4.10878036
I       -3.07781970      17.78722158      13.01286103       0.00214233      -0.00144464       0.00755236      -2.13704354
I        0.90478781      15.55036010      13.16906779       0.00628853       0.00110133      -0.01145954      -2.11844067
I       -0.04580674      12.31331232      16.14562542      -0.03173812       0.01637975      -0.01438915      -2.15473972
Cs       3.29750469      15.56939571      16.26978806      -0.00226573      -0.00004947      -0.00622610      -3.51446128
Pb       0.03256632      12.48821712      19.52687897      -0.00027290      -0.00012984      -0.00429384      -4.37318834
I       -3.08969121      19.54028630      19.56056095       0.00079323       0.00163231      -0.00196862      -2.11162133
I       -0.78883437      15.59407893      19.30782229       0.00142921      -0.00252837       0.00661295      -2.11276685
I       -0.04105631      12.70440832      22.75267034       0.00659499      -0.00575825      -0.00438562      -2.13651563
Cs       3.05715684      15.65563422      22.73513118      -0.00183826      -0.00243059      -0.00079010      -3.52188183
Pb       0.02997638      18.68371122      13.01660628       0.00321317      -0.00458155       0.00110056      -4.39447203
I        3.14405722      19.53275412      13.09009227       0.00631458      -0.00151289       0.00203337      -2.12014886
I       -0.76409529      21.80423503      12.81852556       0.00494602       0.00001071       0.00056743      -2.12063141
I       -0.07173959      18.90156190      16.25076956       0.00807191      -0.00351107       0.00200865      -2.12189016
Cs      -3.21523332      15.66091004      16.30339853       0.00509389      -0.00678453      -0.00028065      -3.45643656
Pb       0.03030188      18.71969528      19.49908109       0.00172093       0.00188297       0.00056871      -4.40292748
I        3.15116716      17.89625115      19.42070993       0.00049215      -0.00111579       0.00149384      -2.11279760
I        0.84929192      21.83487769      19.68696602       0.00225918       0.00005806      -0.00000219      -2.11273063
I        0.12587411      18.49407201      22.73923200      -0.00136591      -0.00021514      -0.00002378      -2.12295772
Cs      -2.96881225      15.57832016      22.73860380       0.00037036      -0.00162169       0.00266629      -3.52228859
159
Lattice="12.468885909578862 12.45567328789723 0.03660330624248233 -12.500938529614729 12.48755672392219 -0.009239974293740398 0.04511830023029706 0.02729054207635215 25.947711814671685" Properties=species:S:1:pos:R:3:forces:R:3:energies:R:1 energy=-454.0083679783117 stress="-5.6774286710657496e-05 6.444475273347033e-05 1.0498151399855845e-05 6.444475273347033e-05 -0.00012685054510657795 5.453717623607015e-05 1.0498151399855845e-05 5.453717623607015e-05 0.0006208268690459822" free_energy=-454.0083679783117 pbc="T T T"
Pb       0.01972055      -0.00731271       0.00879939      -0.00022981       0.00006770      -0.00144931      -4.40233281
I       -3.10831314       5.40907154      -0.06521004       0.00015602      -0.00025720       0.00034900      -2.11159220
I        0.83595443       3.11412221       0.20720876      -0.00065333       0.00043051       0.00087522      -2.11210176
I        0.11117873      -0.22961323       3.25307162      -0.00510567      -0.00135622      -0.00166484      -2.12371728
Cs       3.26287828       3.05707353       3.26172215       0.00213738       0.00377377      -0.00229268      -3.52492649
Pb       0.02764946      -0.00255406       6.49097115      -0.00215553       0.00037471      -0.00221390      -4.39965456
I       -3.09847856       7.05922959       6.58135057      -0.00002987       0.00398852       0.00401917      -2.11485758
I       -0.79381064       3.12066770       6.30129364      -0.00097273       0.00147482       0.00001180      -2.11545027
I       -0.03121037       0.21363964       9.74098850       0.00673656      -0.00162773       0.00025148      -2.13251006
Cs       3.03357826       3.14073020       9.75105990       0.00180361      -0.00935328      -0.00270207      -3.52632726
Pb       0.01367493       6.23052224       0.02039307      -0.00021346      -0.00002715       0.00072052      -4.40260974
I        3.13468708       7.05088551       0.09335264      -0.00054356       0.00012950      -0.00248393      -2.11091757
I       -0.81947388       9.35868380      -0.14125449      -0.00052918       0.00086970       0.00183480      -2.11409540
I       -0.06340695       6.47043041       3.26657039       0.00079689       0.00235135       0.00170666      -2.12424810
Cs      -3.22663065       3.15517929       3.24857833      -0.00051079      -0.00140164      -0.00059751      -3.51938114
Pb       0.01844742       6.23007887       6.50676591       0.00002142       0.00209759       0.00216312      -4.39925336
I        3.13910638       5.41437888       6.43753761       0.00035205      -0.00007731       0.00390300      -2.11332843
I        0.84938090       9.37776683       6.75729695       0.00064582       0.00122695       0.00661458      -2.12132140
I        0.12628840       6.01373553       9.74867513       0.00156269      -0.00504806       0.00026362      -2.12133060
Cs      -2.94255111       3.08087111       9.74128137       0.00294163      -0.00306686       0.00228275      -3.51864115
Pb       0.09250437      -0.00669024      12.98840290       0.00656128      -0.00166900       0.00217960      -4.39444160
I       -3.07587831       5.43955425      12.89988022       0.00130477      -0.00364799       0.00025785      -2.11421634
I        0.88250837       3.11221881      13.18522148       0.00096453       0.00359777       0.00158699      -2.11516936
I        0.15568790      -0.22170044      16.22427604      -0.00469901      -0.00161609       0.00060622      -2.12336452
Cs       3.31407114       3.05531804      16.23181653       0.01270598      -0.00187647      -0.00317195      -3.52116771
Pb       0.05999485       0.01100043      19.46953801       0.00137844       0.00044110      -0.00075849      -4.40180813
I       -3.07210576       7.06360914      19.57600540       0.00126472      -0.00227436       0.00084550      -2.11442112
I       -0.76555421       3.13060891      19.27709860       0.00067972       0.00021246      -0.00013216      -2.11151638
I       -0.02625014       0.23778726      22.71157903       0.00404727       0.00132991      -0.00001895      -2.12510943
Cs       3.05676523       3.17459921      22.71658727      -0.00062049      -0.00317081      -0.00249044      -3.52113937
Pb       0.05507439       6.22543944      12.99076680       0.00292884       0.00089124      -0.00094452      -4.40182090
I        3.18272797       7.03394293      13.07768439       0.00448605      -0.00120643      -0.00003329      -2.11459999
I       -0.73107879       9.36389687      12.77740315      -0.00610002       0.00208895      -0.01368412      -2.11053176
I       -0.04319414       6.47043150      16.23279092       0.00224302      -0.00031406      -0.00048829      -2.12581425
Cs      -3.19574103       3.17457502      16.22537372       0.00113194      -0.00253010      -0.00147650      -3.52045733
Pb       0.05275367       6.24623004      19.47809565       0.00153998      -0.00124278      -0.00045424      -4.40193435
I        3.16942989       5.41543181      19.39453645       0.00139638      -0.00154204       0.00022191      -2.11139217
I        0.86791186       9.38027871      19.65001745       0.00162556       0.00123372      -0.00759698      -2.11692844
I        0.14572107       6.04293733      22.72301559       0.00030656       0.00115195      -0.00007387      -2.12399757
Cs      -2.93769701       3.09716192      22.71538820       0.00051927       0.00007094      -0.00039046      -3.52170772
Pb      -6.23029538       6.23631516       0.00281615       0.00002767      -0.00008533      -0.00047519      -4.40341092
I       -9.35757670      11.65478010      -0.07481167      -0.00087854       0.00056070      -0.00221597      -2.11252190
I       -5.41167517       9.35482454       0.19628381      -0.00023927      -0.00071635      -0.00137599      -2.11149935
I       -6.12909899       6.01208396       3.24764945       0.00209845      -0.00237540      -0.00023876      -2.12463637
Cs      -3.01769418       9.29266104       3.27116745      -0.00210708       0.00253284       0.00264233      -3.51985912
Pb      -6.21571308       6.24198301       6.47932905       0.00070089       0.00026222      -0.00104791      -4.39763912
I       -9.35514455      13.29875960       6.54609621      -0.00069549       0.00116726      -0.01262964      -2.10803508
I       -7.05202122       9.34672032       6.28422911      -0.00142277       0.00080190      -0.00454654      -2.10969264
I       -6.32942895       6.44784046       9.73543970      -0.00063667       0.00139234       0.00046354      -2.14435697
Cs      -3.31292683       9.33079747       9.77810295      -0.00799561       0.00166956       0.00318527      -3.50619160
Pb      -6.23701681      12.47164027      -0.00450850      -0.00063982      -0.00018378      -0.00144126      -4.40368989
I       -3.10620977      13.29728869       0.10704400       0.00143270      -0.00054051      -0.00345826      -2.11470240
I       -7.06449479      15.58986155      -0.17871715       0.00002196       0.00069965      -0.00200198      -2.11151119
I       -6.31106496      12.67917716       3.23258136       0.00291247      -0.00412321      -0.00221024      -2.11825786
Cs      -9.47709079       9.40724784       3.23683404      -0.00300045       0.00037747      -0.00391770      -3.52282031
Pb      -6.24884627      12.45942181       6.47484072      -0.00199248      -0.00097973      -0.00327870      -4.40488723
I       -3.08824039      11.63142730       6.48228836      -0.00188167      -0.00000741       0.01107080      -2.12236329
I       -5.46661098      15.58976912       6.60117171       0.00204470      -0.00238828       0.00159823      -2.11618989
I       -6.31949915      12.21404718       9.69773253      -0.01415532      -0.00652965      -0.00283990      -2.09923899
Cs      -9.22661929       9.35628830       9.74879657      -0.00743033       0.00225855       0.00468850      -3.52887086
Pb      -6.20109685       6.24814958      12.98892825       0.00401158       0.00023006       0.00082715      -4.39304817
I       -9.22945365      11.72437340      12.95264408      -0.01473688      -0.00150644       0.01361994      -2.10738991
I       -5.37140673       9.36746550      13.18534593       0.00363720      -0.00164535      -0.00081009      -2.11984015
I       -6.10415371       6.03784718      16.22381271       0.00079458      -0.00148842      -0.00047394      -2.12849963
Cs      -2.99035784       9.23901532      16.27043233       0.00077902      -0.00122716       0.00121795      -3.51490519
Pb      -6.19812514       6.25731237      19.47211765       0.00041379      -0.00010385       0.00029118      -4.40121214
I       -9.31170387      13.31549367      19.52422240       0.00343820      -0.00096336      -0.00909271      -2.11707866
I       -7.01423851       9.37872694      19.25028664       0.00240058       0.00094582      -0.00457837      -2.11381968
I       -6.28705287       6.48532317      22.70938249       0.00014261       0.00182987      -0.00030920      -2.12416817
Cs      -3.19426491       9.41488639      22.72662191      -0.00015193      -0.00248397       0.00290032      -3.52167782
Pb      -6.11384170      12.49206389      12.89973510      -0.00442169      -0.00130274      -0.00061640      -4.37915611
I       -6.97662267      15.59601014      12.77470251       0.00395238      -0.00053689      -0.00655581      -2.11312237
I       -6.11503080      12.75055884      16.18032587       0.02400506      -0.00003199      -0.00428419      -2.13896381
Cs      -9.45091258       9.41478080      16.21230995      -0.00007770      -0.00202855       0.00003981      -3.51410629
Pb      -6.18501533      12.49818150      19.44713933       0.00346838       0.00060389      -0.00312833      -4.39948523
I       -3.06744519      11.65120554      19.40481867       0.00259469      -0.00538395       0.00759459      -2.10884955
I       -5.37060185      15.61140778      19.66093091       0.00146741       0.00007661       0.00038202      -2.10705222
I       -6.10264802      12.27737525      22.69108006      -0.00346151       0.00000051      -0.00319785      -2.12426385
Cs      -9.19001275       9.34564720      22.70635344       0.00069251       0.00062792      -0.00199140      -3.52079072
Pb       6.25475983       6.22243047       0.02023255      -0.00032042       0.00034820      -0.00145755      -4.40465343
I        3.11304788      11.63082901      -0.02662038      -0.00093149      -0.00104758       0.00135531      -2.11428713
I        7.07434323       9.34064005       0.22722632       0.00015431       0.00026650      -0.00012660      -2.11045987
I        6.34630869       6.02388257       3.26480816      -0.00233054       0.00308790      -0.00015546      -2.12091783
Cs       9.50400138       9.28681847       3.28030405       0.00090098       0.00092313       0.00033946      -3.51858093
Pb       6.25224601       6.23517149       6.48831810       0.00057222      -0.00087178       0.00030259      -4.38994328
I        3.09445684      13.29859415       6.71411234      -0.00117276       0.00164206       0.00775201      -2.12217523
I        5.43440363       9.34896892       6.32508441      -0.00050017      -0.00112464       0.00305151      -2.11882703
I        6.24600737       6.40194678       9.75545303       0.00858942      -0.00213394       0.00100566      -2.15132193
Cs       9.29371056       9.42201193       9.76752816       0.00625331       0.00145903      -0.00090377      -3.51422579
Pb       6.24434938      12.45571877       0.03949800      -0.00049850      -0.00001093       0.00047990      -4.40194960
I        9.36481058      13.27437151       0.12186600      -0.00058412      -0.00053431      -0.00154256      -2.11274731
I        5.42082709      15.57320939      -0.15483853      -0.00041733      -0.00010867      -0.00115480      -2.11118891
I        6.13893939      12.68587828       3.28959249      -0.00149485       0.00129552       0.00103793      -2.12791818
Cs       3.02286027       9.36322476       3.26759508      -0.00100621      -0.00230641       0.00109168      -3.51929204
Pb       6.25256224      12.46569455       6.53385833      -0.00252726      -0.00048022       0.00182003      -4.39794507
I        9.36320474      11.63823758       6.44065068      -0.00232965      -0.00002436       0.00026813      -2.11513796
I        7.06136386      15.57872742       6.74319853       0.00139476      -0.00025217       0.00305675      -2.11495179
I        6.37308007      12.24971723       9.77171852       0.00120753      -0.00165422       0.00192255      -2.11875969
Cs       3.38054390       9.18091865       9.74714463       0.00379574      -0.00089097       0.00712073      -3.48841642
Pb       6.30395274       6.22571854      13.02147653       0.00290881      -0.00082937      -0.00005178      -4.39450591
I        3.17640279      11.60609445      12.88975803      -0.00815108       0.00255298       0.00539641      -2.12535820
I        7.12891648       9.34633292      13.18934377       0.00088491      -0.00107306       0.00004711      -2.11575540
I        6.38135798       6.00414354      16.24661493      -0.00046267      -0.00259337      -0.00204722      -2.11927004
Cs       9.53244099       9.30062214      16.26405362       0.00489520       0.00100309       0.00098690      -3.52099483
Pb       6.29207458       6.23667946      19.49017910       0.00102930       0.00059281      -0.00205153      -4.40582244
I        3.15000457      13.30741974      19.54660023      -0.00110961       0.00005680      -0.00889075      -2.11723673
I        5.46579123       9.35632933      19.29766708      -0.00158967       0.00019045      -0.00269773      -2.11147025
I        6.20733315       6.46340280      22.72956972       0.00181577       0.00115662      -0.00139332      -2.12401947
Cs       9.29282937       9.40563389      22.73698131      -0.00144474      -0.00045656       0.00002510      -3.52175097
Pb       6.32298158      12.46768263      13.01270906      -0.00625221      -0.00450824       0.00082664      -4.39758243
I        9.44000189      13.27942831      13.09682511      -0.00122031      -0.00301107      -0.00018508      -2.11641364
I        5.47637632      15.58099448      12.85058116       0.00595111      -0.00136220       0.00476478      -2.11559538
I        6.18589436      12.69015347      16.25129057       0.00354664      -0.00184560      -0.00039920      -2.12199007
Cs       3.04932501       9.38061237      16.24185238      -0.00200048       0.00165845      -0.00439445      -3.51387305
Pb       6.28264079      12.47455826      19.49554840       0.00073657      -0.00050331       0.00024680      -4.40205451
I        9.40318534      11.65119422      19.41767517       0.00049860       0.00193819       0.00282556      -2.11314715
I        7.09702723      15.59496701      19.69676165      -0.00086061      -0.00019491       0.00038116      -2.11170860
I        6.36344319      12.25620726      22.74251071      -0.00375060      -0.00040285       0.00054326      -2.12491704
Cs       3.29562638       9.32352929      22.73096500      -0.00086417       0.00090954      -0.00156097      -3.52115968
Pb       0.00321460      12.46972195       0.00561083       0.00016083       0.00026460      -0.00663930      -4.37170149
I       -3.12484175      17.88082151      -0.05073190      -0.00003607       0.00029549       0.00033400      -2.11171499
I        0.83002461      15.57404012       0.22769992       0.00016961      -0.00057002       0.00059247      -2.11326886
I        0.11716963      12.28196098       3.39831025      -0.00078180       0.00096641      -0.00608884      -2.14625082
Cs       3.26348466      15.53224133       3.28208873       0.00012556      -0.00266594       0.00140800      -3.51996787
Pb       0.00785782      12.45181348       6.42586412      -0.00000330       0.00047978       0.00241273      -4.17132206
I       -3.11099689      19.50779410       6.61764284       0.00041763      -0.00018891      -0.00040875      -2.12307723
I       -0.81371468      15.55616966       6.37445528      -0.00391338       0.00031111       0.00372671      -2.12836391
I       -2.89816530      13.14649024      12.22726255      -0.06003245       0.03916049       0.08264883      -2.12227573
Cs       3.21492542      15.81474045       9.75113132       0.01201428       0.00956012       0.00013782      -3.46921274
Pb      -0.00242334      18.69867655       0.02870281      -0.00013973       0.00015176      -0.00028213      -4.40293917
I        3.11809731      19.52162407       0.11651916      -0.00027235      -0.00040290      -0.00202905      -2.11120967
I       -0.82856514      21.81459098      -0.15803279       0.00032216      -0.00029142      -0.00235935      -2.11223290
I       -0.09685761      18.90506533       3.27789038      -0.00120155       0.00074026       0.00013717      -2.12470661
Cs      -3.22951046      15.64618141       3.25985313       0.00103463       0.00063073      -0.00084250      -3.52075838
Pb       0.02058099      18.71281454       6.51507085      -0.00011247      -0.00079635      -0.00017239      -4.39343182
I        3.13004985      17.88079165       6.41338611       0.00039928       0.00063924      -0.00392352      -2.11581995
I        0.81932992      21.81908335       6.71545629      -0.00123365       0.00002085      -0.00171953      -2.11336537
I        0.12353032      18.48752740       9.76146764       0.00208691       0.00345602      -0.00048933      -2.13102283
Cs      -3.13082349      15.99398292       9.59419802      -0.00346982       0.00238495      -0.00128878      -3.47057313
Pb       0.10427403      12.44955706      13.06055396      -0.00336167       0.00065626      -0.00804767      -4.14381138
I       -3.08081405      17.83237780      12.98250087       0.00240033       0.01010482       0.00858210      -2.12764313
I        0.90284274      15.55345916      13.13303818       0.00502050       0.00077071      -0.00960353      -2.11925088
I       -0.02939219      12.31217029      16.10358632      -0.02099065       0.00738449      -0.01034428      -2.15973716
Cs       3.28717296      15.57487333      16.25711343      -0.00122718       0.00169326      -0.00502909      -3.51590278
Pb       0.03223286      12.49304087      19.51786311      -0.00014075       0.00015992      -0.00367897      -4.36873456
I       -3.08904841      19.54604435      19.56434083       0.00073641       0.00262278      -0.00087118      -2.10975589
I       -0.80112437      15.59228727      19.28275311      -0.00072092      -0.00108726       0.00178518      -2.11118508
I       -0.04019311      12.69874856      22.73159692       0.00542257      -0.00305046      -0.00413915      -2.13902024
Cs       3.05764456      15.65501804      22.73040729      -0.00078801      -0.00245102      -0.00140523      -3.52098594
Pb       0.02939031      18.69788746      13.00955857       0.00473360      -0.00186284      -0.00026723      -4.39633816
I        3.14493581      19.53067938      13.08545175       0.00602089      -0.00248531       0.00045430      -2.11728426
I       -0.77256224      21.81138777      12.81725334       0.00247986      -0.00247001       0.00021340      -2.11723814
I       -0.06180891      18.90547960      16.24624429       0.00844183      -0.00140072       0.00007695      -2.12096207
Cs      -3.20573300      15.58554197      16.20162495       0.00781445      -0.01561094      -0.01120748      -3.49586655
Pb       0.02759869      18.71581873      19.49315818       0.00042577       0.00036495      -0.00044645      -4.40424560
I        3.15070692      17.89383767      19.41799068       0.00031649      -0.00027791       0.00185750      -2.11251594
I        0.84809095      21.83334180      19.68630817       0.00101885      -0.00033492       0.00016014      -2.11230162
I        0.12548902      18.49142926      22.73607024      -0.00162250      -0.00139215      -0.00067237      -2.12373386
Cs      -2.96804303      15.57950285      22.73151115       0.00018346      -0.00024292       0.00041305      -3.52237373
159
Lattice="12.468885909578862 12.45567328789723 0.03660330624248233 -12.500938529614729 12.48755672392219 -0.009239974293740398 0.04511830023029706 0.02729054207635215 25.947711814671685" Properties=species:S:1:pos:R:3:forces:R:3:energies:R:1 energy=-454.0382021487222 stress="-0.0001194777784980257 9.20136801870703e-05 6.281271269768767e-05 9.20136801870703e-05 -9.005013051598147e-05 2.652979247638782e-05 6.281271269768767e-05 2.652979247638782e-05 0.0006023881073886008" free_energy=-454.0382021487222 pbc="T T T"
Pb       0.02027595      -0.00680938       0.01036903      -0.00025683      -0.00006649      -0.00098509      -4.40362434
I       -3.10792339       5.41178242      -0.06758016       0.00024825      -0.00192630      -0.00015418      -2.11118810
I        0.83945545       3.11362587       0.20300133      -0.00009548       0.00140714       0.00349285      -2.11144861
I        0.12462403      -0.22551678       3.25633098      -0.00371196      -0.00041658       0.00211623      -2.12411077
Cs       3.25854779       3.05276590       3.26682890       0.00018758       0.00134674      -0.00264328      -3.52088040
Pb       0.02894079      -0.00355585       6.49712284       0.00036720      -0.00073672      -0.00161518      -4.39742023
I       -3.09776853       7.05738344       6.58047687       0.00019114      -0.00794806      -0.00823882      -2.11732591
I       -0.79805222       3.11995808       6.30722783       0.00447993      -0.00013452      -0.00119751      -2.11634872
I       -0.06035598       0.22216634       9.74002159       0.00384988      -0.00109914       0.00073000      -2.12601821
Cs       3.03006877       3.16943024       9.74504651      -0.00362214      -0.00499424       0.00399209      -3.51981752
Pb       0.01464518       6.22980738       0.01839080      -0.00020116      -0.00051597       0.00067613      -4.40283776
I        3.13568102       7.05003947       0.10104079      -0.00071308       0.00091399      -0.00070886      -2.11142070
I       -0.81452131       9.35658251      -0.14450037      -0.00452569       0.00182936      -0.00128504      -2.11206141
I       -0.07454797       6.46518866       3.26561856       0.00488470       0.00225460       0.00003309      -2.12462127
Cs      -3.22639857       3.15843226       3.25029596       0.00027764      -0.00255003      -0.00232412      -3.51950835
Pb       0.02092575       6.22917514       6.50571469       0.00338016       0.00177623      -0.00090124      -4.39761059
I        3.14241898       5.41061233       6.42876392       0.00123184       0.00110951       0.00153424      -2.11498873
I        0.84278400       9.38062987       6.76067059       0.00400516      -0.00788022       0.00030230      -2.12010203
I        0.12535967       6.03062422       9.74623589      -0.00308223      -0.00752539      -0.00013952      -2.12078768
Cs      -2.95379869       3.08066482       9.73801547       0.00288844      -0.00273842       0.00220877      -3.51943502
Pb       0.04643739       0.00754827      12.98421021       0.00050385      -0.00073725       0.00152083      -4.39833356
I       -3.08339554       5.43704710      12.89366387      -0.00079047      -0.00063360      -0.00123708      -2.11373675
I        0.86301882       3.13420205      13.17391234      -0.00165428       0.00017409       0.00394530      -2.11526309
I        0.14798113      -0.21153237      16.22594699      -0.00241352       0.00012546      -0.00339599      -2.12408308
Cs       3.28533009       3.06200978      16.24363218       0.00116243       0.00058001      -0.00487698      -3.51934678
Pb       0.05466501       0.01180420      19.47091624       0.00014809       0.00024122       0.00094533      -4.40276513
I       -3.07430479       7.07533076      19.56132694       0.00090821      -0.00122897       0.00034382      -2.11311912
I       -0.77231398       3.13130929      19.27768792       0.00281095       0.00187998      -0.00125078      -2.11270087
I       -0.03857384       0.23633857      22.71388393       0.00325348      -0.00020221       0.00068811      -2.12331890
Cs       3.06222288       3.18370671      22.71706018      -0.00099477      -0.00236903       0.00326628      -3.52196990
Pb       0.04101683       6.24395210      12.98623051      -0.00262434       0.00206685      -0.00025854      -4.39794710
I        3.15959266       7.06638718      13.07344442      -0.00020717      -0.00325093       0.00297088      -2.11762375
I       -0.79127029       9.39523342      12.73198448      -0.00447991      -0.00660086      -0.00536280      -2.12066121
I       -0.05583172       6.48084148      16.22840457       0.00128783       0.00294031      -0.00201467      -2.12619221
Cs      -3.20009845       3.17602285      16.22844424       0.00139734      -0.00146271      -0.00442168      -3.52020111
Pb       0.04693278       6.24866868      19.47576422       0.00036516      -0.00014540      -0.00091179      -4.40173571
I        3.16672960       5.41807430      19.39272240      -0.00064343       0.00105919      -0.00004147      -2.11223212
I        0.86782498       9.37673103      19.65117263       0.00188566       0.00180190       0.00076880      -2.11374085
I        0.14982636       6.03746886      22.72017826      -0.00292172       0.00468675       0.00013076      -2.12483613
Cs      -2.93842243       3.09857599      22.71265159       0.00006319      -0.00026295       0.00250345      -3.52160056
Pb      -6.22988770       6.23731775       0.00236597      -0.00025740      -0.00041247      -0.00055347      -4.40303836
I       -9.35776720      11.65407792      -0.07177524       0.00132228      -0.00086531       0.00005736      -2.11178916
I       -5.41014845       9.35476366       0.19604627       0.00036438       0.00080384       0.00350907      -2.11125575
I       -6.12537200       6.01850412       3.25044359      -0.00263629       0.00022849      -0.00102768      -2.12713315
Cs      -3.01704296       9.27861690       3.27150756      -0.00148458       0.00910450       0.00051574      -3.51867836
Pb      -6.21854987       6.24211639       6.48271383      -0.00035333      -0.00090619      -0.00335331      -4.39418026
I       -9.34413480      13.30516951       6.58524227       0.00044863      -0.00572663      -0.00157733      -2.11602187
I       -7.03752079       9.36207700       6.30927054      -0.00037720      -0.00300762      -0.00122870      -2.11502506
I       -6.32205238       6.45541874       9.73519103      -0.00330105      -0.00563906       0.00057554      -2.14566776
Cs      -3.34216294       9.27165757       9.75145538      -0.00338064      -0.00621496       0.00524443      -3.48406403
Pb      -6.23660748      12.47220909       0.01281532      -0.00039751       0.00019848      -0.00007380      -4.40320526
I       -3.10787038      13.29448490       0.10877129       0.00218510       0.00444258       0.00152708      -2.11166639
I       -7.06206948      15.58957375      -0.17192545      -0.00222143      -0.00062423      -0.00346252      -2.11044954
I       -6.31393983      12.69786922       3.26070419       0.00574482      -0.00335574      -0.00142880      -2.12442334
Cs      -9.47193900       9.40744475       3.24721487      -0.00031771       0.00011565      -0.00245105      -3.51954216
Pb      -6.23112980      12.48280468       6.50377070       0.00198275      -0.00486569      -0.00243451      -4.39859155
I       -3.07684386      11.63451218       6.48429871      -0.00830740      -0.00662500       0.00078096      -2.11836924
I       -5.41121883      15.59679860       6.68910616      -0.01020144      -0.00143232      -0.01593621      -2.11447405
I       -6.09971047      12.26791053       9.74098283      -0.01475413      -0.00125676      -0.00084021      -2.11732185
Cs      -9.21469326       9.33674080       9.73429328      -0.00473421       0.00452545       0.00239568      -3.51729998
Pb      -6.20647758       6.25041846      12.98946010       0.00088880       0.00096057       0.00331404      -4.39476303
I       -9.32477258      11.67055783      12.89810142       0.00145450       0.00275394       0.00141543      -2.11564661
I       -5.38212097       9.36766194      13.16552100      -0.00418437       0.00161731       0.01062872      -2.11864732
I       -6.10240123       6.03282205      16.22248664      -0.00219898       0.00215694      -0.00027881      -2.12708909
Cs      -2.99309678       9.28347869      16.24004613       0.00299846       0.00290169      -0.00494811      -3.51724410
Pb      -6.19687020       6.25536088      19.46955893       0.00021129       0.00025988       0.00059683      -4.40217852
I       -9.32144712      13.31762599      19.55331648       0.00144920      -0.00097213      -0.00194210      -2.11300253
I       -7.02210317       9.37302660      19.27079984       0.00155812       0.00087038      -0.00254967      -2.11208986
I       -6.28974134       6.48050437      22.70921303       0.00253793      -0.00009818       0.00069666      -2.12483106
Cs      -3.19462512       9.41744306      22.71604901       0.00202711      -0.00174791       0.00509015      -3.52152966
Pb      -6.20913258      12.48368335      12.97635235       0.00295695       0.00324264      -0.00035197      -4.39845062
I       -7.02126264      15.60064017      12.78445633      -0.00221871       0.00149022      -0.00229239      -2.11219015
I       -6.28430153      12.71387627      16.22263025       0.01015524       0.00135002      -0.00169424      -2.12762535
Cs      -9.45558575       9.41435854      16.22130533      -0.00132012      -0.00112972      -0.00472767      -3.51898805
Pb      -6.20083370      12.49163712      19.47167946      -0.00062444       0.00012566      -0.00039258      -4.40214758
I       -3.07358475      11.66059872      19.37807885       0.00147846      -0.00184260       0.00253950      -2.11298251
I       -5.38282157      15.60976992      19.67071909      -0.00119558      -0.00096748       0.00027133      -2.11204249
I       -6.09516422      12.27252446      22.71520040      -0.00161752       0.00118597       0.00000785      -2.12429245
Cs      -9.18899469       9.34247694      22.70792411      -0.00130030       0.00106218       0.00230732      -3.52162911
Pb       6.25584486       6.22095992       0.02567905       0.00003463      -0.00005772      -0.00059171      -4.40366325
I        3.11504454      11.63739191      -0.02948081      -0.00187375      -0.00450373      -0.00133895      -2.11257573
I        7.07320496       9.34013750       0.22337861       0.00130555       0.00034306       0.00472212      -2.11071984
I        6.35757728       6.00479799       3.27303924      -0.00419147       0.00322499      -0.00126164      -2.12596927
Cs       9.49739179       9.27548335       3.28715914       0.00229177       0.00155518      -0.00184379      -3.51925463
Pb       6.26527824       6.22473553       6.50666103      -0.00007300       0.00134491      -0.00331940      -4.39568693
I        3.09594394      13.29336694       6.69832628       0.00664918       0.00343586       0.00278154      -2.12361410
I        5.43313989       9.34118987       6.33068430       0.00529367       0.00137282      -0.00305234      -2.11954939
I        6.20742290       6.41719681       9.75869506       0.01476466      -0.01115037       0.00083329      -2.13832087
Cs       9.27341270       9.40838098       9.76069103       0.00303046       0.00155375       0.00348146      -3.51916834
Pb       6.24591739      12.45707915       0.03741684       0.00050514      -0.00049242       0.00094815      -4.40270991
I        9.36642301      13.27669269       0.12326069      -0.00137247       0.00051540       0.00142185      -2.11165759
I        5.42045046      15.57449672      -0.14949938      -0.00117766      -0.00101224      -0.00312490      -2.11137153
I        6.14162038      12.68334759       3.28691206      -0.00270739       0.00025291       0.00124606      -2.12725354
Cs       3.03229859       9.36441634       3.27081945      -0.00461931      -0.00099187      -0.00070716      -3.51771727
Pb       6.25424119      12.45737651       6.52980491      -0.00290081       0.00292820       0.00077667      -4.39677433
I        9.36734895      11.63285818       6.44126469      -0.00104372       0.00490278      -0.00065018      -2.11692065
I        7.05967393      15.57741848       6.73669305      -0.00206859       0.00092442       0.00239985      -2.11444749
I        6.34427699      12.24708357       9.76708286       0.00684393      -0.00020161       0.00175939      -2.11979509
Cs       3.37883490       9.20488203       9.75297752      -0.00206892       0.00102552       0.00188594      -3.49332256
Pb       6.27844339       6.23537922      13.01139044      -0.00058301      -0.00072870       0.00317307      -4.39699451
I        3.12292719      11.64731767      12.86801806       0.00801628      -0.00792033       0.00175032      -2.11812184
I        7.09092796       9.35568079      13.18714911       0.00251686      -0.00255058       0.00298446      -2.11357284
I        6.38016982       6.01810953      16.24596140      -0.00558789       0.00099570      -0.00000805      -2.12583184
Cs       9.51504814       9.29428189      16.26255430       0.00181783       0.00253108      -0.00429374      -3.52067392
Pb       6.28892448       6.23909332      19.49221583       0.00016253      -0.00013342       0.00045425      -4.40285750
I        3.15159659      13.30363791      19.56083749      -0.00172305       0.00228378      -0.00235822      -2.11318898
I        5.46127492       9.35594701      19.29921283       0.00220869       0.00119252      -0.00013503      -2.11223992
I        6.19671458       6.46365090      22.73223919       0.00390593      -0.00067614       0.00069429      -2.12416401
Cs       9.29658751       9.41148184      22.73566512       0.00008352      -0.00134105       0.00388377      -3.52196111
Pb       6.27825512      12.47442564      13.00786794      -0.00151395      -0.00458226       0.00195620      -4.39911274
I        9.38993368      13.29365413      13.09314285       0.00044680      -0.00261019       0.00113049      -2.11502247
I        5.45079692      15.58883158      12.83491088       0.00736414      -0.00072245       0.00981952      -2.11448231
I        6.16988640      12.69400108      16.24942745       0.00010798      -0.00307905      -0.00002952      -2.12384830
Cs       3.05502248       9.38275148      16.24180644       0.00027149       0.00530731      -0.00694889      -3.51800125
Pb       6.28145177      12.47413253      19.49533627       0.00023323       0.00032306      -0.00015697      -4.40217014
I        9.40042163      11.64497024      19.41236467      -0.00176544       0.00251733       0.00074522      -2.11296048
I        7.09895502      15.59304065      19.69421220      -0.00059051      -0.00033730       0.00173347      -2.11188969
I        6.37613910      12.25629908      22.74061560      -0.00582131       0.00109636       0.00099572      -2.12478774
Cs       3.30034660       9.32089295      22.72981559      -0.00344867       0.00232263       0.00172931      -3.52175399
Pb       0.00195199      12.46995261      -0.00928152       0.00013365      -0.00024173       0.00751754      -4.37698744
I       -3.12499394      17.88030563      -0.05420724       0.00092159      -0.00136885       0.00123339      -2.11133764
I        0.82435335      15.57554773       0.22273656       0.00440558      -0.00200626       0.00171014      -2.11117076
I        0.11661697      12.28370155       3.37531001      -0.00124152       0.00230530       0.00800346      -2.14599230
Cs       3.26586579      15.54213509       3.28227012      -0.00204876      -0.00307916      -0.00077185      -3.51809941
Pb       0.01300493      12.45177366       6.40272858      -0.00087749       0.00138248       0.01188034      -4.17022800
I       -3.10865187      19.51495984       6.61569294      -0.00239818       0.00140882      -0.00253332      -2.11367060
I       -0.83079252      15.54646257       6.42318824      -0.00429045       0.00683541       0.00092744      -2.12218986
I       -3.04878021      13.31987752      12.96389698      -0.00616513       0.00570249      -0.00208211      -2.12296721
Cs       3.18227194      15.78890410       9.74577328       0.01053392       0.00786885       0.00323226      -3.47386211
Pb      -0.00308335      18.69927594       0.03179203       0.00000925       0.00040766       0.00001582      -4.40331791
I        3.11853657      19.52016352       0.11972123      -0.00050381       0.00176992       0.00174369      -2.11092647
I       -0.82857508      21.81592790      -0.15197876      -0.00153535      -0.00134681      -0.00206760      -2.11138424
I       -0.09492815      18.90551465       3.28181733      -0.00004967      -0.00751684      -0.00017075      -2.12641644
Cs      -3.24488435      15.65168124       3.27474728       0.01049095      -0.00171947       0.00165269      -3.52035095
Pb       0.01249331      18.70333619       6.52828475      -0.00400317      -0.00280235      -0.00071467      -4.39802990
I        3.13055869      17.87113522       6.43545016      -0.00232424       0.00977963      -0.01389543      -2.11899070
I        0.82515082      21.81501490       6.72035522      -0.00596308      -0.00146364       0.00034676      -2.11635089
I        0.10449750      18.45420811       9.76119178      -0.00151109       0.01305829       0.00105347      -2.11646484
Cs      -3.12018533      15.69731538       9.75481763      -0.01022017       0.01057792       0.00223936      -3.46727548
Pb       0.04294362      12.46817550      13.10624197      -0.00071428       0.00156656      -0.01229747      -4.17107111
I       -3.10334508      17.89557596      12.92410192       0.00183697       0.00697144       0.01792414      -2.11475087
I        0.86392802      15.56241424      13.10256169       0.00895570       0.00702591       0.00129680      -2.11772317
I        0.09964938      12.28236239      16.13427305      -0.00391789       0.00036241      -0.00833065      -2.14600084
Cs       3.27628135      15.56106184      16.24673696      -0.00748392       0.00370364      -0.00801910      -3.51969699
Pb       0.03626941      12.48869787      19.51732498       0.00017352      -0.00002741      -0.00719576      -4.37635352
I       -3.08926315      19.54508713      19.57264957       0.00070111       0.00006296      -0.00091466      -2.11199252
I       -0.78999911      15.59330137      19.28593522      -0.00190331      -0.00147327      -0.00045999      -2.11248194
I       -0.04920354      12.69476882      22.72733072       0.00279419      -0.00062581       0.00101906      -2.13859735
Cs       3.05806755      15.66396268      22.72772576       0.00031898      -0.00347429       0.00208013      -3.52133108
Pb       0.01491024      18.71597204      12.99658411       0.00426298      -0.00236804       0.00173418      -4.39914314
I        3.13799414      19.52270649      13.07895163       0.00338082       0.00317483       0.00113712      -2.11362854
I       -0.80505561      21.82615696      12.81487659       0.00386102      -0.00096939      -0.00267683      -2.11468266
I       -0.07013548      18.92283640      16.24261899       0.00537620      -0.00540805       0.00000496      -2.12518827
Cs      -3.23574463      15.65209356      16.23333483       0.00277627      -0.01033906      -0.00787548      -3.51970320
Pb       0.03193379      18.71836511      19.49102997      -0.00040057       0.00057997       0.00012238      -4.40241552
I        3.15204560      17.88743962      19.40898572      -0.00120346       0.00195873      -0.00045797      -2.11278750
I        0.85005989      21.83588071      19.68810895      -0.00121083      -0.00124583       0.00067589      -2.11258045
I        0.13346800      18.49511464      22.73494749      -0.00302626       0.00045521       0.00049643      -2.12403734
Cs      -2.96490076      15.58004466      22.72711686       0.00011699      -0.00081406       0.00279703      -3.52136359
