159
Lattice="12.468885909578862 12.45567328789723 0.03660330624248233 -12.500938529614729 12.48755672392219 -0.009239974293740398 0.04511830023029706 0.02729054207635215 25.947711814671685" Properties=species:S:1:pos:R:3 pbc="T T T"
Pb       0.01829022      -0.00704906       0.00780593
I       -3.10909677       5.41339619      -0.05380687
I        0.83704609       3.11700720       0.19182814
I        0.11495898      -0.23126339       3.26070284
Cs       3.27154670       3.05444628       3.25895064
Pb       0.02478988      -0.00191688       6.49402173
I       -3.09869819       7.03000289       6.54977937
I       -0.79325099       3.12206062       6.31668479
I       -0.04789035       0.22197922       9.74070862
Cs       3.01633818       3.15548760       9.75102789
Pb       0.01180628       6.23298479       0.01486897
I        3.13681065       7.04459147       0.08553490
I       -0.82496913       9.35253078      -0.12652680
I       -0.05769227       6.49276550       3.27082717
Cs      -3.23309638       3.15140863       3.24815110
Pb       0.03198811       6.23640008       6.50358421
I        3.14676483       5.40997253       6.44482071
I        0.84132554       9.38064471       6.78311977
I        0.11645811       6.00382589       9.74535390
Cs      -2.94052375       3.07683542       9.73720724
Pb       0.04809361       0.01120078      12.98730526
I       -3.08660332       5.43773739      12.89724078
I        0.85972184       3.13515582      13.16668809
I        0.13809134      -0.21741939      16.22076840
Cs       3.29573214       3.06387816      16.24120138
Pb       0.05574449       0.01361187      19.47349561
I       -3.07628623       7.06817181      19.55202400
I       -0.76827764       3.13584658      19.29035337
I       -0.02805494       0.24119223      22.71454686
Cs       3.05376649       3.17928911      22.72109967
Pb       0.03183649       6.25417145      12.98620451
I        3.15961699       7.04931824      13.07245270
I       -0.78953263       9.39610860      12.70141421
I       -0.04894836       6.50752915      16.22052520
Cs      -3.20759447       3.16907519      16.22948731
Pb       0.05103626       6.25401158      19.47809321
I        3.16834992       5.42224025      19.40035513
I        0.87471819       9.37129086      19.63595660
I        0.14056173       6.04726453      22.72019561
Cs      -2.93210160       3.10235427      22.71276353
Pb      -6.23041688       6.23690483      -0.00515589
I       -9.35413997      11.65537033      -0.05877359
I       -5.41691677       9.35263075       0.18051536
I       -6.12952253       6.01621446       3.24870592
Cs      -3.04543350       9.27739147       3.26759745
Pb      -6.21844453       6.24026832       6.46644719
I       -9.34173326      13.29692851       6.57034170
I       -7.04199263       9.35605197       6.32534389
I       -6.34149408       6.43539450       9.73504536
Cs      -3.40872001       9.20903716       9.75824159
Pb      -6.23459712      12.47496132       0.00538584
I       -3.11227878      13.30246013       0.10177804
I       -7.06244687      15.59139377      -0.15759959
I       -6.28503536      12.69364059       3.26233680
Cs      -9.47977404       9.40095900       3.24258697
Pb      -6.22760296      12.47052662       6.49696712
I       -3.07421375      11.61984456       6.53891446
I       -5.44537757      15.59280831       6.62884154
I       -6.13476921      12.25611248       9.73976381
Cs      -9.21839732       9.35475721       9.73436357
Pb      -6.20415852       6.25216029      13.00543645
I       -9.32251873      11.67501002      12.91614846
I       -5.40424435       9.36941075      13.17600605
I       -6.10744477       6.03475239      16.22312840
Cs      -3.00595133       9.25779104      16.24619294
Pb      -6.19707362       6.25672106      19.47796989
I       -9.31912328      13.31491771      19.53869457
I       -7.01688494       9.37232683      19.28086390
I       -6.28302827       6.48391842      22.70981131
Cs      -3.20995384       9.39505820      22.72553122
Pb      -6.20170086      12.49303261      12.97791148
I       -7.02609948      15.60439484      12.79588222
I       -6.24823229      12.72455657      16.21705496
Cs      -9.46362013       9.40777138      16.22516153
Pb      -6.19498204      12.48932295      19.47625396
I       -3.07933112      11.65500659      19.39378006
I       -5.38616260      15.61109549      19.65093289
I       -6.09389015      12.26905475      22.71502009
Cs      -9.18560014       9.34935264      22.70742156
Pb       6.25584347       6.22142062       0.01808951
I        3.12171234      11.62959887      -0.02194731
I        7.07054499       9.33805739       0.21469640
I        6.34217379       6.01028891       3.27176176
Cs       9.50756563       9.27783082       3.27832084
Pb       6.26381300       6.22866842       6.49139865
I        3.09468826      13.29628428       6.73818709
I        5.44989287       9.34284726       6.33475636
I        6.26101808       6.38052828       9.75988802
Cs       9.27608428       9.41265094       9.76444790
Pb       6.24016617      12.45258522       0.03461786
I        9.36281691      13.27510542       0.11469240
I        5.42362071      15.57610106      -0.13288436
I        6.12805672      12.68859742       3.29379531
Cs       3.04070139       9.32777694       3.26347243
Pb       6.24351167      12.46688322       6.53018594
I        9.36580359      11.63930901       6.44570005
I        7.05766857      15.58070981       6.72938028
I        6.35950652      12.23854960       9.76995329
Cs       3.42459311       9.16931457       9.75197006
Pb       6.27580271       6.23449177      13.02665945
I        3.12199815      11.64060763      12.84165369
I        7.09660335       9.34929349      13.17173573
I        6.35990238       6.01700093      16.24643627
Cs       9.52663277       9.29387860      16.26096098
Pb       6.28861842       6.23941635      19.49897442
I        3.15492142      13.31156664      19.54518990
I        5.46875451       9.35526012      19.31788188
I        6.21161981       6.46515036      22.73289638
Cs       9.28943938       9.40865146      22.74184843
Pb       6.27432959      12.46127160      13.01276562
I        9.38753357      13.28958523      13.08696089
I        5.48345301      15.58701926      12.88539183
I        6.15672770      12.68949483      16.24595690
Cs       3.08195147       9.37096874      16.24349677
Pb       6.27886486      12.47691093      19.50110810
I        9.39689249      11.64939007      19.42196258
I        7.09633800      15.59477083      19.67797557
I        6.35372918      12.25191301      22.74206992
Cs       3.31033457       9.31587428      22.72814827
Pb       0.00050591      12.47112072      -0.03506529
I       -3.12605834      17.88348951      -0.03898920
I        0.83149922      15.58048587       0.20593765
I        0.12204334      12.26647609       3.26660646
Cs       3.29287600      15.55353092       3.26895486
Pb       0.01691838      12.44692681       6.31704253
I       -3.11397963      19.52079567       6.60352367
I       -0.84433089      15.54483743       6.48509752
I       -3.04820582      13.32948615      12.90589087
Cs       3.26993011      15.88561450       9.74867248
Pb      -0.00029299      18.69444003       0.02522590
I        3.11974455      19.51853301       0.11174879
I       -0.82882869      21.81361044      -0.13546732
I       -0.09621801      18.88401708       3.28382766
Cs      -3.23825657      15.67214302       3.27426227
Pb       0.00221414      18.69921356       6.52437431
I        3.12626655      17.90359555       6.40343336
I        0.81814372      21.81248849       6.70247635
I        0.09767554      18.47092503       9.76175538
Cs      -3.21653994      15.80970045       9.75392520
Pb       0.04349471      12.46222097      13.19142585
I       -3.09793885      17.92705463      12.98509563
I        0.88532023      15.55918974      13.04123137
I        0.09400824      12.25701727      16.24258372
Cs       3.28157761      15.59718664      16.23989389
Pb       0.03626908      12.49146221      19.54432642
I       -3.09116877      19.54329785      19.56030845
I       -0.79525601      15.59909265      19.30011863
I       -0.04320328      12.70583182      22.72813715
Cs       3.07477602      15.67434868      22.72837152
Pb       0.02646485      18.71203337      13.00230588
I        3.14382858      19.52978358      13.06704288
I       -0.79825049      21.82352410      12.83029060
I       -0.05134640      18.90718333      16.24014896
Cs      -3.25976207      15.63832663      16.23444771
Pb       0.02849427      18.71610199      19.49900301
I        3.15388153      17.89528210      19.41874447
I        0.84828839      21.83318266      19.67131384
I        0.12305377      18.47961406      22.73516674
Cs      -2.98010570      15.60108497      22.72836356
