233
Lattice="-12.957396986651146 6.351727325886291 13.017959588757243 13.11604327292129 6.668741413988977 13.017959588757243 13.195366416056363 13.17897578392661 -6.508979794378622" Properties=species:S:1:pos:R:3:forces:R:3:energies:R:1 energy=-1066.2243504029743 stress="0.00022771642736700237 0.00020277616225651332 5.7717162075710454e-05 0.00020277616225651332 -0.0001333453582635643 0.0001220899152836364 5.7717162075710454e-05 0.0001220899152836364 -2.5102913855366862e-05" free_energy=-1066.2243504029743 pbc="T T T"
Pb      -6.44477472       6.32792277      13.08448987       0.00052571       0.00031932      -0.00057974      -4.62553812
I       -3.14210288       5.92726710      12.86112366       0.00043926      -0.00080366      -0.00175735      -2.08239350
I       -6.14674841       9.61229882      13.12238304       0.00027584       0.00032232      -0.00364746      -2.02566380
I        6.83679872      19.47552688       9.77871473       0.00216537       0.00813436      -0.00056492      -1.95497687
C       -3.08832135       9.51113228      16.11958539       0.00090079      -0.00206547      -0.00076123      -8.94572727
H       -3.09155262       8.72352065      15.36112079       0.00225375      -0.00303284       0.00057129      -3.42118294
N       -4.13072880      10.31082570      16.19691435       0.00077122      -0.00204391      -0.00314750      -8.66578388
H       -4.90467919      10.21489487      15.54074948       0.00154767      -0.00338392      -0.00403570      -3.82766293
H       -4.17961483      11.06196979      16.88604802      -0.00048375      -0.00132300      -0.00424814      -3.69344966
N       -2.03902461       9.61701327      16.90671014       0.00010208      -0.00055242       0.00079275      -8.65389478
H       -1.99686530      10.31799341      17.64730576      -0.00144872       0.00012260      -0.00006897      -3.69991458
H       -1.28432485       8.93271131      16.85044528       0.00022066      -0.00033745       0.00237363      -3.84272557
Pb       0.28409742      19.52960882       6.51706953      -0.00018974       0.00023248      -0.00051452      -4.62966906
I        3.51173830      19.40147589       6.57365809       0.00068600      -0.00089270      -0.00044980      -1.97839414
I       13.43949897       9.91637677      12.64217857      -0.00388961       0.00010517      -0.00438476      -1.99610012
I       13.23040331      13.90314089      -3.25661587       0.00163083       0.00156138      -0.00073137      -2.08112911
C        3.59302872       3.61832249       3.20295144      -0.00046719       0.00271194      -0.00207314      -8.90258842
H        4.43423352       4.28080314       3.42680847      -0.00443353       0.00901260      -0.00618422      -3.46613993
N        3.61336358       2.94728854       2.07069665       0.00121755      -0.00015899      -0.00007277      -8.67591015
H       -8.55590219       9.38749936      14.44677711      -0.00101726       0.00257068      -0.00219706      -3.84025688
H        2.84357429       2.34541350       1.78137336       0.00640259      -0.00940021       0.00555512      -3.66345263
N        2.61841385       3.52937948       4.08208288       0.00244847      -0.00096185       0.00072988      -8.68614160
H        1.82571706       2.90021303       3.94322439       0.00457420      -0.00418295       0.00292102      -3.70686077
H        2.61772786       4.12233529       4.90920770       0.00131361       0.00062366      -0.00051075      -3.80151899
Pb       0.05344053       6.59114991       6.45654471       0.00042136       0.00071126       0.00031872      -4.65590788
I        3.34450412       6.56559784       6.28746719       0.00025353      -0.00163775       0.00097933      -1.99094870
I        0.08976916       9.81533638       6.27546971      -0.00018654       0.00075885       0.00090071      -1.99319010
I        0.34109270       6.90838462       9.77895091       0.00241130       0.00345230      -0.00020656      -2.01854295
C        3.83720086       9.78690263       9.88637100       0.00369142      -0.00018390       0.00177873      -8.90727105
H        4.81780373      10.20128201       9.63564510       0.00429437       0.00074393       0.00650983      -3.45615214
N        3.43739603       9.84413134      11.14187238      -0.00182167      -0.00145958       0.00035912      -8.72122883
H        4.03200817      10.25665260      11.85561605      -0.00504344      -0.00105456       0.00282324      -3.77888917
H        2.49193394       9.57999789      11.42148734      -0.00208362      -0.00329464      -0.00374147      -3.69045653
N        3.11098050       9.26463639       8.92148499       0.00803227       0.00008775      -0.00133076      -8.69272442
H        2.25636502       8.73421707       9.12235451       0.00738185      -0.00005480      -0.00543633      -3.74742609
H        3.47497894       9.21546313       7.97448919       0.01235143       0.00103660       0.00006119      -3.74683902
Pb       0.18065990       6.47233426      13.03047301       0.00014813       0.00086214      -0.00005854      -4.64808902
I        3.34588388       6.57746725      13.43268722       0.00019278       0.00102846      -0.00035213      -1.98347882
I        0.09906277       9.80305400      13.08382866      -0.00278578       0.00082258       0.00097689      -2.02659814
I       13.15857488      19.74872194       9.74236909      -0.00014238      -0.00105506      -0.00005072      -1.97036765
C        3.43593387       9.72103776      15.93853545       0.00569970      -0.00003799       0.00448997      -8.91297274
H        3.68272152       9.58110074      14.88347752      -0.00291298       0.00500826      -0.00446214      -3.46595737
N        4.41334432       9.64043479      16.81623728      -0.00864994      -0.00171811      -0.01156336      -8.77732840
H        5.35532611       9.40014057      16.52438172      -0.00007466       0.00010206      -0.00613054      -3.76000860
H        4.26290071       9.79678674      17.80936260      -0.00049701      -0.00795201      -0.00136930      -3.61187870
N        2.18648133       9.96708003      16.26427778      -0.00424841      -0.00154078      -0.00240660      -8.63937172
H        1.86900311      10.01177872      17.23968635      -0.00084309      -0.00375040       0.00042688      -3.76319865
H        1.47382929      10.03186382      15.53799894      -0.00193672       0.00015185       0.00151866      -3.81131589
Pb       0.21397962      13.05025593       6.56712747      -0.00055161       0.00081900       0.00059856      -4.62497157
I        3.47504985      13.05966015       7.08214092       0.00011180       0.00092945       0.00014037      -1.99557411
I        0.47943541      16.31549315       6.98254407       0.00236549       0.00061117       0.00191706      -2.04497094
I        0.04502668      12.75888515       9.79109590      -0.00076840      -0.00095547       0.00025516      -1.95734680
Pb       0.21946279      13.05249994      13.00129085      -0.00000207       0.00051826       0.00034451      -4.62128274
I        3.50236873      13.22057473      12.71966471      -0.00042459      -0.00118373      -0.00080853      -2.01955854
I        0.40320105      16.33982039      12.49427115       0.00148051       0.00079945       0.00034653      -2.09442932
I        0.32251494      13.23630860      16.29586487       0.00200096       0.00080842       0.00016601      -1.89202608
C        3.32066855      16.61155694      16.31792862       0.00004012       0.00182793      -0.00191896      -8.89273940
H        2.66624095      17.48152513      16.43533200      -0.00119931       0.00126416      -0.00450838      -3.48221676
N        4.16827771      16.33175158      17.28137417      -0.00245978       0.00357930       0.00066593      -8.62114489
H        4.23076381      16.93369644      18.10137567      -0.00501543       0.00466003       0.00010102      -3.80838489
H        4.84409349      15.56609075      17.18889708      -0.00129626       0.00432866       0.00298236      -3.74744174
N        3.20790637      15.89656155      15.21830432       0.00378510       0.00075943      -0.00160646      -8.69778416
H        3.75415665      15.04761240      15.07382680       0.00529352       0.00128268       0.00088762      -3.65921156
H        2.52603170      16.13091029      14.49985970       0.00530348      -0.00078349      -0.00346749      -3.80262245
Pb       0.17706966      13.04097439      19.47337828      -0.00055820      -0.00008509      -0.00042180      -4.65509857
I        3.41292407      13.06618786      19.79668944      -0.00051478       0.00099434       0.00029778      -2.01851504
I       13.01922275       9.92260936       6.72338320      -0.00009640       0.00027731       0.00010112      -1.96512975
I       -0.19920977      12.66582624      22.84256062      -0.00232951      -0.00358448       0.00007196      -2.05091115
C        3.65012021      16.15599905      22.43298843       0.00106702      -0.00106013       0.00053011      -8.91927883
H        4.19418555      15.98024489      21.50050422       0.00288664      -0.00203874       0.00179184      -3.45835366
N       16.86075509      10.91153428      10.08146101       0.00259158      -0.00212651       0.00182185      -8.67409128
H       17.57571365      11.56206653       9.76120629       0.00525948      -0.00397180       0.00407195      -3.81693021
H       16.41970446      11.12059904      10.97798928       0.00082995      -0.00133699       0.00072388      -3.68843367
N        2.77874362      15.25564385      22.83144412      -0.00243781       0.00131384      -0.00219607      -8.67925571
H       15.14123288       9.06052599      10.63297010      -0.00390188       0.00235810      -0.00343766      -3.73882860
H        2.62069725      14.41758326      22.27673745      -0.00322832       0.00197963      -0.00311759      -3.77173161
Pb       6.71357386       6.62313511       0.11402799       0.00005393      -0.00024878      -0.00006835      -4.65216586
I       -3.00764239      13.31986779      13.32468477      -0.00009912       0.00258881       0.00123358      -2.00591764
I        6.68868380       9.81016929       0.02599005      -0.00006550      -0.00004580       0.00299934      -1.88550257
I        6.45346223       6.72966675       3.29038717      -0.00038415      -0.00222972      -0.00000780      -1.98575684
C        9.89974419      10.29450478       3.50242426      -0.00016015      -0.00165365       0.00295360      -8.90515470
H       10.08742709      11.19424704       4.09625921       0.00025405      -0.00472208       0.00732587      -3.47126186
N       10.85086107       9.85937650       2.70511642      -0.00121432       0.00340072      -0.00113382      -8.71891018
H       11.73220296      10.36252850       2.63921328      -0.00191749       0.00459485      -0.00033787      -3.75604198
H       10.73087262       9.01957004       2.13303552      -0.00144820       0.00566362      -0.00435982      -3.71615368
N        8.72800025       9.70448832       3.62426296       0.00052755      -0.00314628       0.00178130      -8.70033936
H        8.48137967       8.87632350       3.08277888       0.00008819       0.00008513      -0.00283286      -3.67167620
H        8.04213784      10.02202553       4.30625319       0.00173128      -0.00798824       0.00526227      -3.79845246
Pb       6.54589460       6.53014620       6.61859043       0.00090092      -0.00055228      -0.00006043      -4.66185657
I        9.86881645       6.22727988       6.26854626       0.00003376       0.00008426      -0.00274272      -2.03970240
I        6.40762368       9.79927800       6.65324019       0.00046863       0.00034028      -0.00144955      -2.01077601
I        6.39995774       6.42276681       9.84340336       0.00181549      -0.00036674       0.00029303      -1.93048690
C       10.17409716       9.61303099       9.94804475       0.00181396      -0.00081781       0.00296191      -8.90968312
H       10.95357973       8.84677626       9.88456905       0.00330290       0.00056401       0.00447714      -3.46225660
N        9.32331384       9.54978706      10.95215738       0.00058913      -0.00190452       0.00178034      -8.68605467
H        9.39711944       8.81665314      11.65622421       0.00085631      -0.00156393       0.00210814      -3.82038670
H        8.58453251      10.24461555      11.06318423      -0.00087845      -0.00321622       0.00040751      -3.68182572
N       10.13437495      10.54196200       9.01897095       0.00154499      -0.00139774       0.00242306      -8.63470677
H        9.43527504      11.28781924       9.04058606       0.00065771      -0.00217249       0.00149044      -3.71538137
H       10.82852006      10.55739871       8.27004833       0.00228690      -0.00092125       0.00311704      -3.82835594
Pb       6.55785523       6.60787192      13.17010752       0.00029983      -0.00048151       0.00043225      -4.66190868
I        9.86688580       6.56153177      13.32969244       0.00042171      -0.00230768       0.00059488      -2.04992986
I        6.57893282       9.85836417      13.54220413      -0.00009915      -0.00001268       0.00126057      -2.01390886
I       19.83384853      19.60460595       9.88792595       0.00002405      -0.00314447       0.00018329      -1.92387084
C        9.74714514      10.11731788      16.30937384       0.00090022       0.00131800       0.00035667      -8.94479353
H        8.96212979      10.87900995      16.29930015       0.00138050       0.00187909       0.00084786      -3.43209989
N       -3.34922528       2.58512277       4.28490258       0.00008842       0.00019649      -0.00115574      -8.67157891
H        9.14574609      15.80362554      -1.48421813      -0.00032853      -0.00038072      -0.00108268      -3.84186047
H       10.54836978      15.02695380      -2.17223394      -0.00007711       0.00003201      -0.00125153      -3.68006475
N       10.61719545      10.10450745      15.32234179       0.00141711       0.00219310       0.00046669      -8.62660790
H       -1.72225686       2.77186765       2.28966852       0.00126936       0.00215325       0.00020976      -3.71764592
H       10.57479342      10.81660403      14.59110050       0.00179856       0.00298259       0.00128829      -3.84702361
Pb       6.73372270      12.99999931       0.05864790      -0.00046660      -0.00010401      -0.00028674      -4.66395408
I        9.99175091      13.06530311       0.25940231      -0.00036552       0.00064876      -0.00081728      -1.95072895
I        6.86402490      16.35269903       0.00764491      -0.00184627      -0.00034298      -0.00269047      -2.02147258
I        6.33783392      13.40075253       3.41932064      -0.00291247       0.00207717       0.00017508      -2.06251105
C        9.94681372      16.17057725       3.07284694      -0.00180435       0.00061032      -0.00118491      -8.91072118
H       10.07858713      15.37440303       2.33333981      -0.00397245       0.00315827      -0.00428037      -3.46729861
N        8.82792227      16.19592848       3.76671933      -0.00004612      -0.00125059       0.00150271      -8.66387269
H        8.11614672      15.47436116       3.64814921      -0.00100550      -0.00017393       0.00047021      -3.84019825
H        8.62555404      16.95133727       4.42060589       0.00299276      -0.00458637       0.00623034      -3.67729249
N       10.91406165      17.04919908       3.22722056      -0.00090470      -0.00045166      -0.00046417      -8.67462333
H       10.85514093      17.77426030       3.94452328       0.00050117      -0.00209003       0.00130810      -3.70714619
H       11.73510263      17.02774964       2.62388638      -0.00195517       0.00054189      -0.00191045      -3.81016950
Pb       6.72740067      13.09052260       6.72043885      -0.00023662       0.00141313       0.00065886      -4.63535171
I        9.97810925      13.22904137       6.38766617      -0.00019394      -0.00080147       0.00086115      -1.94211392
I        6.52034730      16.27790423       6.92875827       0.00607106       0.00073755       0.00874714      -1.99762667
I        7.07084721      12.64044432       9.91815215       0.00101819      -0.00313188      -0.00004740      -2.03248040
C        9.96376586      16.55633443       9.72557130      -0.00042772       0.00119374      -0.00088328      -8.92218553
H        9.22237939      17.35878179       9.64465906      -0.00078400       0.00061042      -0.00290771      -3.45195169
N        9.78480353      15.63856659      10.65197388       0.00139237       0.00500935       0.00319439      -8.64779097
H        8.98520594      15.68206694      11.28383956       0.00170917       0.00675977       0.00348003      -3.84833270
H       10.43822864      14.86392268      10.76541863       0.00185274       0.00576197       0.00542259      -3.67674369
N       10.98392078      16.55726631       8.89652897      -0.00178256      -0.00193526      -0.00251536      -8.62391351
H       11.72251781      15.85249976       8.96273003      -0.00178219      -0.00182184      -0.00122802      -3.73419429
H       11.06166740      17.26573087       8.16862833      -0.00304410      -0.00467252      -0.00527534      -3.83009841
Pb       6.71855370      13.09462709      13.17057397      -0.00025591       0.00019479      -0.00067529      -4.64165142
I        9.99900556      13.06755263      13.23784763      -0.00019180       0.00301633       0.00170414      -2.00155037
I        6.76579118      16.30616461      12.77294375      -0.00411803       0.00027208      -0.00541617      -2.04127486
I        6.42336514      13.51151370      16.36155049      -0.00325243       0.00330329      -0.00134067      -2.01826180
C        9.76008749      16.49255500      16.25393756      -0.00110061       0.00283487       0.00182561      -8.90689001
H        8.76511973      16.28976516      15.84789526      -0.00146623       0.00384531       0.00223809      -3.43547637
N        9.98642852      16.24856719      17.52684985      -0.00031536       0.00059874       0.00124157      -8.62442839
H        9.24164844      15.92324762      18.14143870      -0.00006435      -0.00008899       0.00117140      -3.82413253
H       10.91751348      16.36268632      17.94486864      -0.00014390       0.00020901       0.00096649      -3.77213230
N       10.68888960      16.95518992      15.43664288      -0.00148601       0.00376970       0.00190147      -8.72296113
H       11.57626346      17.31146200      15.79323877      -0.00136074       0.00347899       0.00194469      -3.67851253
H       10.47381292      17.17210920      14.46813279      -0.00238412       0.00597091       0.00255920      -3.76442914
Pb       6.77391448      13.09251504      19.66295503      -0.00054520      -0.00032696      -0.00099325      -4.66729662
I       -3.15851873       6.37528025       6.52606744      -0.00031291      -0.00042001      -0.00146002      -1.89926165
I        6.95959637      16.37260061      19.76627069      -0.00145419      -0.00032469      -0.00010507      -2.01482605
I       -6.22226647       6.40836531       9.84896235      -0.00143295      -0.00166487      -0.00125207      -1.92071402
C       -3.51395529       9.66336288       9.65635465      -0.00231323      -0.00053542       0.00027257      -8.89251371
H       -4.59659163       9.60613005       9.51528491      -0.00221123      -0.00143704       0.00031707      -3.47033744
N       -2.84540760      10.61562410       9.04324187      -0.00359380       0.00229252       0.00335856      -8.67112888
H       -3.30359081      11.26247698       8.40453423      -0.00463507       0.00351877       0.00537777      -3.79995135
H       -1.86987646      10.82776518       9.26745656      -0.00370535       0.00266435       0.00343693      -3.71682229
N       -2.94152891       8.77243669      10.44034085      -0.00104363      -0.00248962      -0.00277635      -8.67958162
H       -1.92661516       8.68162072      10.49055858      -0.00101697      -0.00137680      -0.00292557      -3.69335151
H       -3.48814641       8.03980275      10.88713767      -0.00035812      -0.00411584      -0.00464942      -3.79397865
Pb       6.76402981      19.58581738      12.98310329       0.00012037       0.00032465      -0.00085914      -4.64581805
I       10.03378132      19.62934455      12.86189478      -0.00014162       0.00066025      -0.00033037      -1.98860558
I       19.58839149      16.47528809      -0.07364922       0.00286105       0.00029056       0.00224995      -1.96618828
I        6.81035545      19.55537364      16.26858597       0.00051919      -0.00264594      -0.00031073      -1.92817991
C        9.80858261      22.55286526      16.22362902      -0.00091223      -0.00353911      -0.00031620      -8.88756255
H        9.34216462      21.61377513      16.53754649      -0.00424378      -0.00351756      -0.00559167      -3.47087167
N        9.94582531      23.51029477      17.11690087      -0.00002042      -0.00805757       0.00423305      -8.73658350
H       22.50030982      17.06828889       5.02670147      -0.00159008      -0.01166347       0.00316834      -3.75569598
H       10.26422376       4.81267544      10.41292268       0.00090666      -0.00776668       0.00843567      -3.68139823
N       10.21827946      22.66133237      14.97622740       0.00180452       0.00085836       0.00102001      -8.64776680
H       10.47070192      23.56576621      14.57207618       0.00621336       0.00151453       0.00574685      -3.70842442
H       10.11877458      21.87476573      14.33019085       0.00101743       0.00393642      -0.00240519      -3.85110971
Pb       6.83974432      19.62687487      19.42499026      -0.00014105      -0.00014671      -0.00033504      -4.65089994
I       10.09322279      19.94458900      19.34409643      -0.00012572       0.00139113       0.00091184      -1.95473233
I       19.77982686      16.53903516       6.49956475      -0.00232230      -0.00051664       0.00076547      -2.02230677
I       -6.15485883      12.83207003       9.80173224       0.00010346       0.00034379      -0.00020039      -2.08659911
C        9.96616354       9.82135974      -2.87354026      -0.00090036       0.00103446       0.00191526      -8.90857764
H       -2.71937765      15.54532487      10.99861384      -0.00117007       0.00091732       0.00195102      -3.45315568
N       10.72571737      10.85758467      -3.16106932      -0.00058428       0.00081230       0.00209533      -8.68733248
H       11.56051693      11.05005690      -2.61387508      -0.00065912       0.00058922       0.00227663      -3.77578134
H       10.51016608      11.48070174      -3.94359155      -0.00024585       0.00080024       0.00193597      -3.72742812
N        8.89295963       9.49950899      -3.56322294      -0.00084978       0.00127331       0.00177482      -8.63146316
H       21.68524467      16.72182213       8.66094283      -0.00127312       0.00216739       0.00255321      -3.68734304
H        8.33726391       8.67602072      -3.32895077      -0.00090068       0.00122337       0.00140002      -3.85936360
Pb      13.25073621      13.22770611       0.01594089      -0.00050455       0.00113115      -0.00025247      -4.62707946
I        3.51539368      19.35249798      12.76706450      -0.00031362       0.00262989      -0.00021323      -1.97968080
I        0.06595639       3.27637551       6.86923134      -0.00049103       0.00088262      -0.00002529      -2.03497282
I       13.27046423      12.83823566       3.20579310      -0.00053939       0.00194853      -0.00019131      -2.02290086
C       16.13345291      16.43105596       3.22887475       0.00036477      -0.00034411      -0.00143599      -8.93272085
H       15.09280484      16.16846879       3.43872383       0.00123897      -0.00337981      -0.00096025      -3.44675001
N       16.85819480      16.92394971       4.21054395      -0.00124676       0.00366434      -0.00222097      -8.73061263
H       16.44846854      17.05818446       5.13112678      -0.00158259       0.00362900      -0.00242092      -3.76425979
H       17.79350933      17.30244783       4.05672942      -0.00251496       0.00655868      -0.00300521      -3.68452314
N       16.59623357      16.23129158       2.01394274       0.00102504      -0.00069841      -0.00108515      -8.67253715
H       17.56705824      16.41721427       1.74727088       0.00056684       0.00159582      -0.00119977      -3.72863370
H       15.98809686      15.86238082       1.28741471       0.00260316      -0.00429074      -0.00053481      -3.77856023
Pb      13.28640466      13.17554488       6.49205487      -0.00022844       0.00058747       0.00000514      -4.65854060
I       16.53973987      12.93091236       6.55321815      -0.00043700       0.00216317      -0.00062337      -1.96049095
I       13.71079434      16.43486565       6.27593808      -0.00051960       0.00074092      -0.00143165      -1.98077678
I       13.12949661      13.54553559       9.72872901       0.00065860       0.00105851      -0.00003487      -2.01591081
C       16.84191547      16.44570422       9.64791400       0.00096924       0.00030764      -0.00029935      -8.90493195
H       17.75103902      16.76749958       9.13220577       0.00127262      -0.00014470      -0.00003609      -3.45714313
N       15.87865799      17.32277582       9.83089709       0.00123858       0.00073401      -0.00085537      -8.70458513
H       15.94102507      18.25679826       9.43504488       0.00177277       0.00062079      -0.00104549      -3.78622233
H       15.06819871      17.11599371      10.41750626       0.00088043       0.00114270      -0.00127052      -3.71056876
N       16.76511004      15.19542719      10.05866842       0.00038399       0.00045012       0.00001287      -8.67853570
H       15.90258069      14.81091068      10.44256465       0.00004585       0.00081102      -0.00041380      -3.67812660
H       17.55765362      14.56348033       9.95111280       0.00004524       0.00002824       0.00001390      -3.83967230
Pb      13.25549055      13.20565463      13.05468159       0.00015021      -0.00005442      -0.00018764      -4.65391405
I        3.39849204       6.39920009       0.07056498       0.00011195      -0.00110655      -0.00044160      -2.01408079
I       13.40780502      16.44312481      12.75752265       0.00113269      -0.00011783       0.00017326      -1.95213195
I        0.10684647       6.54160168       3.23892834       0.00195066       0.00077342       0.00000244      -1.88209345
C        3.51316508       9.62876865       3.28739333       0.00000411      -0.00128282       0.00019560      -8.90456529
H        3.46871177       8.68041557       3.83011418       0.00138055      -0.00126599       0.00044111      -3.46255641
N        3.33647010       9.62469091       1.98356287      -0.00130032      -0.00173191       0.00043415      -8.64004700
H        3.21860307       8.75097027       1.46917211      -0.00124152      -0.00183993       0.00066258      -3.84172544
H        3.36318383      10.49131558       1.43746228      -0.00225354      -0.00182269       0.00017911      -3.74332275
N        3.72796443      10.73244135       3.97769776      -0.00024926      -0.00104390      -0.00019571      -8.74631047
H        3.84273851      11.62976220       3.51092899      -0.00208838      -0.00090222      -0.00051884      -3.64624020
H        3.89980324      10.71050962       4.97807118       0.00092626      -0.00063249      -0.00044195      -3.76996453
Pb      13.37229263      19.69462854      13.06290421      -0.00006408      -0.00036581      -0.00000288      -4.65451491
I       16.58638506      19.60503579      13.16623420      -0.00023664      -0.00023862      -0.00043530      -1.96744291
I       13.75700411      22.95816651      13.02909159      -0.00038717      -0.00016559      -0.00069387      -1.99106654
I       13.35601541      19.65390273      16.28582278       0.00113507      -0.00008631       0.00028374      -1.92721767
C        3.20331798      16.54278804       3.42035314       0.00184022       0.00226411       0.00153200      -8.90405822
H       15.46811590      23.89427540      16.35391687       0.00770512       0.01067052       0.01016061      -3.46179077
N        4.10354775      16.54599511       2.46080730      -0.00486915      -0.00147811      -0.00297050      -8.67444953
H       17.14814254      23.87084416      14.70223987      -0.00389421       0.00138828      -0.00105404      -3.82677620
H        4.89278686      15.89975663       2.46672317      -0.00783042      -0.00577416      -0.00871428      -3.68847443
N        3.27008648      15.75275246       4.47123062      -0.00007255      -0.00290728      -0.00206630      -8.66264458
H        4.04493311      15.10265395       4.60201231      -0.00746832      -0.01336106      -0.01192001      -3.68445053
H        2.57070368      15.80500224       5.21233618       0.00466147      -0.00094961       0.00151426      -3.83649373
Cs       3.62001845      16.33644823       9.80834232       0.00027617       0.00118137       0.00006906      -3.65627502
