233
Lattice="-12.957396986651146 6.351727325886291 13.017959588757243 13.11604327292129 6.668741413988977 13.017959588757243 13.195366416056363 13.17897578392661 -6.508979794378622" Properties=species:S:1:pos:R:3:forces:R:3:energies:R:1 energy=-1066.0276898993227 stress="-2.484752519555398e-05 0.00032175306891167333 -1.09758426695855e-05 0.00032175306891167333 -0.000218796010954986 -0.00014245507349286714 -1.09758426695855e-05 -0.00014245507349286714 -0.0002067169073607817" free_energy=-1066.0276898993227 pbc="T T T"
Pb      -6.41502248       6.34600774      13.01108400       0.00069711      -0.00061492      -0.00006641      -4.64288911
I       -3.18267941       6.66523827      13.15344427       0.00075169      -0.00195296       0.00356920      -1.93297255
I       -6.73611106       9.60732443      12.99663633       0.00401053      -0.00014018       0.00094004      -2.00598731
I        6.67445635      19.33467728       9.78566529      -0.00321793       0.00005467      -0.00001590      -1.99421988
C       -2.93752002       9.55549469      16.25909579       0.00050525      -0.00424476      -0.00046343      -8.92174395
H       -2.19749485       8.75059273      16.21471499       0.00209428      -0.00031215      -0.00350970      -3.46236568
N       -2.52976187      10.76790790      16.57859806       0.00259626       0.00108540       0.00213715      -8.72820512
H       -1.55644293      10.95927471      16.79922006       0.00073611      -0.00114733      -0.00209276      -3.76100537
H       -3.20099685      11.52974957      16.68771801       0.00104536      -0.00319936       0.00518932      -3.69244296
N       -4.19372429       9.27520172      15.97979093       0.00172045      -0.00119017       0.00422732      -8.70996699
H       -4.90677690      10.00731144      16.00392420       0.00060826      -0.00346483       0.00652565      -3.70237532
H       -4.48840001       8.33326768      15.73431894       0.00115338      -0.00305436       0.00271179      -3.77153921
Pb       0.36986053      19.61297175       6.68858060       0.00073545       0.00042574       0.00061733      -4.63185823
I        3.53957464      19.31420811       6.54291512       0.00054501       0.00395328      -0.00347955      -1.95878948
I       13.32838686       9.96030892      13.46278959      -0.00083184       0.00054823       0.00052543      -1.91204993
I       13.59590314      13.07301946      -3.15629286       0.00255285      -0.00086336      -0.00007116      -2.04164295
C        3.37930450       3.50656524       3.28876336       0.00325895       0.00332620       0.00283982      -8.88830665
H        3.44777626       4.35849135       2.60567363       0.00568737       0.00553090       0.00634663      -3.47174890
N       -9.22252773       8.67061579      15.86292584      -0.00217412       0.00292210      -0.00390032      -8.71518869
H       -8.87906774       8.54188864      14.91482841      -0.00404805       0.00667727      -0.00460139      -3.79371744
H        3.97502606      21.03595612       9.96846969      -0.00430283       0.00087158      -0.00757415      -3.67376393
N        2.92274623       3.71023857       4.50740672       0.00651009      -0.00144151       0.00398594      -8.63117363
H        2.80878174       2.93041554       5.15912922       0.00565127      -0.00355657       0.00121190      -3.72151178
H        2.76075495       4.64990698       4.86723217       0.01139049      -0.00180333       0.00900949      -3.81420123
Pb       0.00240948       6.65492757       6.57334068       0.00020407       0.00039846      -0.00150479      -4.64112511
I        3.33338487       6.75759650       6.53208485       0.00073038       0.00287161      -0.00263517      -2.04933916
I        0.17705108       9.80486156       6.51903434      -0.00170718      -0.00002194       0.00242351      -1.87898155
I        0.15446780       6.81153991       9.82800916      -0.00146041      -0.00005218      -0.00097860      -2.04164966
C        3.43162189       9.36146239       9.74271441       0.00008645      -0.00267193       0.00151582      -8.90729669
H        3.19684446       8.35747544       9.37921329      -0.00059195      -0.00310120       0.00111216      -3.46086502
N        3.08980858       9.68455205      10.97078718       0.00125419      -0.00148247      -0.00151892      -8.66039528
H        2.65360632       9.00520253      11.58829042      -0.00030008      -0.00066960       0.00071579      -3.79780776
H        3.25825985      10.61792689      11.35799836       0.00139887      -0.00106039      -0.00084365      -3.74383732
N        4.02675902      10.19826539       8.91476889       0.00175629      -0.00426876      -0.00108741      -8.68699694
H        4.40900710      11.08951548       9.24126859       0.00205837      -0.00418283      -0.00132346      -3.72669869
H        4.31924911       9.89012022       7.99247432       0.00104387      -0.00535972       0.00000064      -3.75743384
Pb       0.00427537       6.58362477      13.13419277       0.00043306       0.00010386      -0.00066896      -4.66346638
I        3.36491356       6.39467567      12.85605955       0.00067005      -0.00242952      -0.00355178      -2.09349458
I        0.15252479       9.79963927      13.39100472      -0.00072982      -0.00000553      -0.00213880      -1.97569031
I       13.33080197      19.66340796       9.80684973       0.00137178       0.00232665      -0.00013584      -1.98517445
C        3.20965554       9.65137822      16.13725319      -0.00111858      -0.00301941      -0.00139811      -8.90131548
H        2.34808193       9.85604250      15.49507027      -0.00210560      -0.00126155       0.00050129      -3.47185571
N        3.55614013      10.55148271      17.03048538      -0.00138510      -0.00102506       0.00110898      -8.65299156
H        3.02296598      11.41205768      17.13164889      -0.00124444      -0.00358283       0.00177704      -3.79000261
H        4.32534236      10.38699941      17.68752518      -0.00047668      -0.00285369      -0.00058683      -3.75200890
N        3.84548411       8.50907389      15.97272470      -0.00132152       0.00015153      -0.00277492      -8.67240728
H        4.69481490       8.28339070      16.49151167       0.00042006      -0.00107008      -0.00411792      -3.68289847
H        3.57286722       7.86025867      15.23616451      -0.00116568      -0.00024159      -0.00341307      -3.82714681
Pb       0.09028041      13.04560261       6.49963152       0.00070584       0.00005101       0.00019723      -4.65255762
I        3.44914645      13.44850037       6.16398742       0.00052523      -0.00330761      -0.00406739      -2.01359008
I        0.20964953      16.32305392       6.82240483       0.00161758       0.00004937       0.00057753      -1.99070592
I        0.45732234      12.97428727       9.82061687       0.00783608       0.00037588      -0.00053266      -1.96119019
Pb       0.29440644      13.03295976      12.98811646       0.00025555       0.00031645      -0.00180717      -4.63713471
I        3.48975141      12.81639512      12.96766752      -0.00047105      -0.00286229       0.00433869      -1.99967401
I        0.62454815      16.27246350      12.92094037      -0.00128650      -0.00005658       0.00075276      -2.00924716
I        0.66379814      13.04932658      16.34686018      -0.00199450      -0.00146259       0.00026584      -2.04924760
C        3.02022820      16.41936519      16.27470105      -0.00402777       0.00182774       0.00030333      -8.90948965
H        1.98928965      16.17429951      16.54401351      -0.00583472       0.00486553      -0.00264649      -3.45186774
N        3.45797646      17.63666097      16.51394588      -0.00145870      -0.00078789      -0.00320389      -8.65757354
H        2.84491101      18.33567978      16.92724934      -0.00053709       0.00345679      -0.00703236      -3.80165621
H        4.43220163      17.91611316      16.36275116      -0.00004087      -0.00286260      -0.00172503      -3.74448666
N        3.76522392      15.47575782      15.73534542      -0.00538798      -0.00450705       0.00569497      -8.72167499
H        4.68970498      15.67205986      15.35161866      -0.00319505      -0.00793485       0.00889345      -3.67865132
H        3.37864254      14.55474261      15.54937153      -0.00762518      -0.00251838       0.00816678      -3.77256928
Pb       0.14821715      13.07529520      19.57117497       0.00109650      -0.00019858       0.00069911      -4.64998483
I        3.43700065      13.12447716      19.77696821       0.00065359       0.00228009      -0.00060841      -2.03040003
I       12.91233721      10.01197900       6.24940261      -0.00167394      -0.00059973       0.00052743      -2.02618101
I        0.22226827      13.15705767      22.85605088       0.00248443       0.00061268       0.00028627      -2.07457949
C        3.62076736      16.19647491      22.84648223       0.00007506      -0.00174847      -0.00312131      -8.95570112
H        4.43479508      15.46879418      22.91973535      -0.00184385      -0.00471670      -0.00593047      -3.42415426
N        2.82844296      16.14412373      21.79540243       0.00034661       0.00467792      -0.00192419      -8.64352496
H        2.95239312      15.41824806      21.08802871      -0.00264632       0.00747278      -0.00516164      -3.85020825
H       15.00191545      10.43664003       8.67353505       0.00167477       0.00812760       0.00066413      -3.67735515
N       16.43924987      10.72712861      10.79227363       0.00408891      -0.00516797       0.00142021      -8.60515815
H       15.71239056      11.44793105      10.74707747       0.00610429      -0.00278366       0.00452321      -3.74993375
H       17.08280374      10.73930414      11.58297718       0.00501479      -0.00982382      -0.00013123      -3.82742734
Pb       6.55260439       6.50241639       0.10765438      -0.00049108      -0.00005703      -0.00035591      -4.65184529
I       -3.02900927      13.07898531      12.78125227      -0.00112080      -0.00178842      -0.00641467      -2.05445757
I        6.47464114       9.73132489       0.01724778       0.00149006       0.00044198      -0.00076400      -2.00468183
I        7.08726611       6.30801626       3.28793845       0.00002602      -0.00186769      -0.00001313      -2.00598331
C        9.81815321       9.95867693       3.11776381      -0.00165934       0.00418542       0.00407506      -8.93663268
H        8.96108881      10.00479290       2.44014663      -0.00146891       0.00634337      -0.00455927      -3.43915240
N       10.76016462       9.06945980       2.86852171      -0.01119991      -0.01489760      -0.00702520      -8.72561968
H       10.68858687       8.44767343       2.06651140      -0.01491137      -0.00737237       0.00326543      -3.79031467
H       11.58641542       8.99256520       3.46069028      -0.00986138      -0.01638729       0.00104477      -3.67164036
N        9.86137716      10.78876741       4.13591766       0.00196097      -0.00396877      -0.00944519      -8.66388048
H       10.63119374      10.76521508       4.81018764       0.00537322      -0.00656789      -0.00103464      -3.72430811
H        9.11242708      11.46352878       4.27974094       0.01012617       0.00565433      -0.00392316      -3.80060137
Pb       6.69459931       6.51905397       6.57190734       0.00112316       0.00046628      -0.00042887      -4.66090574
I        9.89640957       6.64534824       6.66633670       0.00067662      -0.00150280      -0.00047042      -1.94473376
I        6.89083892       9.83898231       6.48921757       0.00263616      -0.00002169      -0.00016274      -2.04252239
I        6.75533498       6.69618224       9.77695717       0.00107279      -0.00092321      -0.00016037      -1.88838729
C        9.93200597       9.66301120       9.61827084       0.00133602      -0.00079411      -0.00017066      -8.92406908
H        9.94442409       8.84996298       8.88488915       0.00179626      -0.00079014       0.00005596      -3.46158830
N       10.91716822       9.73731907      10.48695073       0.00211974      -0.00077424       0.00027767      -8.65755260
H       11.66912269       9.04959950      10.47839601       0.00181188      -0.00051265      -0.00015078      -3.82323699
H       10.93494013      10.45874573      11.21090055       0.00159298      -0.00098262       0.00013684      -3.70329842
N        8.93125582      10.51675683       9.57981005       0.00177579      -0.00113314       0.00027024      -8.67198937
H        8.87573661      11.29399440      10.23878976       0.00147815      -0.00116034       0.00040587      -3.68013417
H        8.19789900      10.42534180       8.87770880       0.00153586      -0.00105163       0.00010407      -3.82340237
Pb       6.76291202       6.57042469      12.93751061       0.00022265       0.00032273      -0.00018331      -4.66172794
I        9.92581416       6.61559497      13.17925362       0.00049904       0.00076827       0.00174071      -1.97644680
I        6.65169995       9.76864929      13.06967802       0.00015893       0.00027135      -0.00151132      -1.91931789
I       20.12605936      19.64237068       9.79715621      -0.00052500       0.00204491       0.00008820      -2.01755043
C        9.86839943       9.78483143      16.59532503      -0.00203714       0.00022405       0.00284128      -8.89181937
H       -2.62531064       3.84295398       4.10740079      -0.00563571       0.00196034       0.00533231      -3.44695003
N        8.67156151      10.15123953      16.18414713      -0.00138508      -0.00250332      -0.00057920      -8.64002104
H        8.30370062      11.09098042      16.34211997      -0.00424510      -0.00354734      -0.00157611      -3.85106844
H        8.07452000       9.51717617      15.65276719       0.00061012      -0.00495730      -0.00046168      -3.69074723
N       10.34547739       8.57128111      16.40298992       0.00224483       0.00222120       0.00395092      -8.70137679
H       22.99133245      21.03453959       9.41791672       0.00647680       0.00103090       0.00012706      -3.69283241
H       11.36196242      14.81940521      -2.82626977       0.00159787       0.00451324       0.00764035      -3.79792739
Pb       6.71711902      12.92753472      -0.02596783      -0.00000723       0.00043207      -0.00011279      -4.65922642
I        9.93456738      12.87038204       0.19149245       0.00034404      -0.00171996      -0.00154474      -1.89554826
I        6.44581322      16.23349997      -0.12975882       0.00132248       0.00118706      -0.00045952      -2.03356486
I        6.81901939      12.82393012       3.29594122       0.00381480       0.00110089       0.00016075      -2.04971720
C       10.10921345      16.17405077       3.37540530      -0.00086819      -0.00147675       0.00318776      -8.90579292
H       10.81077422      15.33739152       3.31263309      -0.00226960      -0.00351500       0.00902466      -3.46845393
N        8.85797493      15.97828001       3.01280700       0.00177934       0.00138300      -0.00222307      -8.66782115
H        8.52033655      15.05449180       2.74994652      -0.00022859       0.00121287      -0.00128030      -3.79752085
H        8.17891295      16.74274199       3.05013466       0.00277560       0.00304381      -0.00663213      -3.72092216
N       10.56149090      17.33836178       3.79596558       0.00157201      -0.00136926       0.00251358      -8.73859652
H        9.93701755      18.13647956       3.90973371       0.00260604       0.00047783      -0.00242574      -3.66610494
H       11.52514255      17.45157658       4.09668145      -0.00043964      -0.00361074       0.00708263      -3.77532377
Pb       6.65222313      13.18759761       6.54730445       0.00066566      -0.00026930      -0.00014828      -4.62128640
I        9.94015217      13.60551323       6.92188375      -0.00008713       0.00192213       0.00273846      -1.98109983
I        6.66866942      16.33224533       6.62063364      -0.00539322      -0.00020036      -0.00038604      -1.93121722
I        6.19246167      13.16842555       9.76924641      -0.00208450      -0.00143865      -0.00006127      -2.07976024
C        9.94815911      16.64847460      10.08112035      -0.00507026      -0.00065956       0.00330158      -8.90232676
H       10.01569782      17.31849922      10.94387744      -0.00525452       0.00478404       0.00051794      -3.46874554
N       10.94614258      16.63381270       9.22453472       0.00294024       0.00198023       0.00418251      -8.69441849
H       11.74388635      17.25573925       9.34122677      -0.00255715       0.00175963       0.00450631      -3.80712281
H       10.92124201      16.04658437       8.38968651       0.00226529      -0.00104498       0.00582777      -3.69196660
N        8.87746597      15.89177450       9.95932533       0.00306443      -0.00014226       0.00450839      -8.68680692
H        8.77163877      15.25162645       9.17128955       0.00513390      -0.00781418       0.00630368      -3.68978460
H        8.12010800      15.94185374      10.63863654      -0.00098498      -0.00205796       0.00216102      -3.80515095
Pb       6.72074889      12.99317099      13.04643285      -0.00098506       0.00033914      -0.00060670      -4.61977324
I        9.95485617      12.81885971      12.60428508      -0.00032583       0.00001323      -0.00184837      -2.00163369
I        6.46188015      16.29169211      12.98342479      -0.00421752       0.00006728       0.00124443      -2.04722102
I        6.70731509      13.23158788      16.28320933       0.00144989       0.00039421      -0.00030069      -1.99429476
C        9.66481386      16.71571466      16.31082448      -0.00200614       0.00530510       0.00226591      -8.90769032
H        8.88150556      17.47975135      16.27353403      -0.00082668       0.00587351       0.00316430      -3.46718276
N       10.62157373      16.75857727      15.40911678      -0.00577348       0.00041547      -0.00285713      -8.64384871
H       10.64228637      17.49840455      14.70754592      -0.00803253      -0.00113376      -0.00447907      -3.82844313
H       11.39694329      16.09400610      15.42269442      -0.00623629       0.00067026      -0.00302830      -3.70587684
N        9.59272981      15.79664053      17.24903159       0.00182153       0.00840950       0.00590149      -8.66465584
H       10.28942349      15.05483799      17.32635434       0.00083698       0.00790680       0.00497606      -3.68908012
H        8.82749200      15.79218489      17.92173684       0.00422289       0.01153213       0.00873531      -3.82498577
Pb       6.67078779      13.00210225      19.57144802       0.00042506       0.00111174      -0.00078015      -4.64695846
I       -3.19949897       6.46452734       6.68826512       0.00062816      -0.00013748      -0.00180944      -1.96100462
I        6.54362810      16.25291475      19.57602757      -0.00010876       0.00121098       0.00020330      -2.02160006
I       -6.13659745       6.10520791       9.79001588       0.00369728       0.00155069      -0.00047037      -2.02109467
C       -3.00865014       9.45154652       9.62511197      -0.00039960      -0.00543748      -0.00382914      -8.91287582
H       -2.90066204       8.42507299       9.26450414       0.00216581       0.00485017      -0.00698165      -3.46250695
N       -2.01338888       9.98933828      10.29823006       0.00451930       0.00279362       0.00215835      -8.74914566
H       -1.16246132       9.46167908      10.47334373      -0.00079839       0.00399471      -0.00685001      -3.77331175
H       -2.05530958      10.94411900      10.65334750      -0.00521780      -0.00367200       0.00622239      -3.65962474
N       -4.13882300      10.08178734       9.37927665      -0.00885895       0.00119302       0.00410895      -8.68974472
H       -4.29148615      11.04980430       9.66153867      -0.00574669      -0.00616049       0.00850374      -3.66069237
H       -4.85214693       9.67178434       8.77827728      -0.00278734      -0.00244994       0.00607248      -3.81794314
Pb       6.71195525      19.59003499      12.99318744      -0.00103770       0.00016798       0.00008872      -4.64643020
I        9.95722953      19.65016312      13.01143706      -0.00044660       0.00139087      -0.00095161      -1.99173474
I       19.79638227      16.47964823       0.04418281       0.00030167       0.00012921       0.00087882      -1.93920301
I        6.60998798      19.50433580      16.31217098      -0.00210681       0.00395080       0.00057766      -2.05023538
C       10.09062713      23.04857923      15.95873264      -0.00040129       0.00313895      -0.00107100      -8.91334121
H       10.50112802      23.03839253      14.94475960      -0.00267012       0.00404029      -0.00180338      -3.45402906
N        8.91537134      22.49673209      16.17264585       0.00075038       0.00260263       0.00175029      -8.63567086
H        8.34821491      22.16289688      15.39506209      -0.00104050       0.00273591       0.00259961      -3.81083933
H        8.48564114      22.49404014      17.10284732       0.00236021       0.00244412       0.00237691      -3.75025245
N       10.81892550      23.59004960      16.91559122       0.00199587       0.00319531      -0.00207455      -8.71800446
H       10.45830832      23.70529730      17.86116327       0.00408155       0.00256660      -0.00158866      -3.65451408
H       11.69551061      24.06007600      16.70374567       0.00088357       0.00402195      -0.00436559      -3.80160749
Pb       6.73511896      19.54358667      19.62942333      -0.00024369       0.00065239       0.00048458      -4.65697464
I       10.03143546      19.51393045      19.65905503       0.00036039       0.00167507       0.00147100      -1.86518113
I       20.21039588      16.42186714       6.51618860      -0.00064980       0.00068305       0.00243490      -2.05452161
I       -6.56879319      12.91685648       9.83499319      -0.00198343      -0.00037968       0.00032203      -1.96638054
C        9.98640586       9.92047157      -3.51600948      -0.00079584       0.00343991      -0.01421424      -8.90254741
H        9.74527640      10.45172448      -4.44113038       0.00802530      -0.00809585      -0.00678625      -3.45942394
N        9.06245043       9.16082798      -2.96779822      -0.00329089      -0.00574652       0.00112818      -8.68377455
H        8.15907207       9.03449907      -3.41455591       0.00103878      -0.00040443      -0.01245139      -3.75501179
H       -3.68978505      14.91648668      10.85854551      -0.00637242       0.00639666      -0.00865843      -3.75133574
N       -1.77352185      16.44105908      10.02270324       0.00553287       0.00189223       0.00557995      -8.68144249
H       -1.50368423      16.03438594      10.91826232      -0.00793526       0.00859424       0.00252878      -3.67036042
H       -1.06735464      16.99765669       9.54682473      -0.00045725      -0.00126230       0.00225764      -3.81734338
Pb      13.14854942      13.18537481       0.12543347      -0.00011601       0.00008226      -0.00004225      -4.63103688
I        3.47351338      19.95889730      12.87910592      -0.00017855      -0.00106447      -0.00083047      -2.02083887
I       -0.31956070       3.22705148       6.41084616       0.00031363      -0.00041718      -0.00233331      -1.97539597
I       13.18790308      13.32891888       3.34710106       0.00093569       0.00291259       0.00000866      -1.98953021
C       16.39158560      16.17700638       3.17274707      -0.00116742      -0.00146228      -0.00300744      -8.89867428
H       16.66071099      15.23380918       2.69021520      -0.00521263      -0.00264513      -0.00335911      -3.45843668
N       17.13760522      16.60814778       4.16960113       0.00234737      -0.00412828      -0.00467238      -8.67264621
H       17.91455562      16.05647994       4.52188852       0.00098693      -0.00688659      -0.00630039      -3.75719606
H       16.90212124      17.45740876       4.69243430       0.00579466      -0.00351587      -0.00386426      -3.75892982
N       15.34966472      16.83963718       2.71324418       0.00046148       0.00164447      -0.00132637      -8.66115285
H       15.02899454      17.71139205       3.13996974       0.00356238       0.00264021      -0.00067210      -3.70836748
H       14.78289833      16.47774632       1.94594022      -0.00215778       0.00325059      -0.00020723      -3.82599209
Pb      13.21753736      13.29285217       6.61886652       0.00028321      -0.00058558       0.00041556      -4.65894953
I       16.45500232      13.45117174       6.59976156      -0.00024152      -0.00068737      -0.00146544      -1.89643949
I       13.35390580      16.51394466       6.44267501       0.00022646      -0.00053315       0.00340171      -1.96827105
I       13.59331555      12.88729005       9.86191246       0.00324932       0.00042001       0.00037135      -2.01511907
C       16.26164401      16.59342478       9.81627461      -0.00101838       0.00202599       0.00082874      -8.91420594
H       15.28514771      16.51771784       9.33111916      -0.00175613       0.00210869       0.00228052      -3.44544160
N       16.39775066      16.13504617      11.04154395       0.00011064      -0.00005783       0.00098616      -8.64299690
H       15.58632048      15.81462011      11.56827788       0.00114084      -0.00129040       0.00065306      -3.81656065
H       17.28912409      16.18746416      11.54434310       0.00063587       0.00002282      -0.00028521      -3.75236232
N       17.25720682      17.11931381       9.12693286      -0.00253278       0.00290587       0.00119558      -8.71579699
H       18.16080743      17.30563540       9.55767387      -0.00159842       0.00255792       0.00020601      -3.65278918
H       17.10402734      17.49734875       8.19485673      -0.00332262       0.00443454       0.00154330      -3.81631725
Pb      13.18438856      13.17430836      13.09477395      -0.00073149       0.00026943      -0.00022204      -4.65952350
I        3.35287287       6.60079504       0.55507618      -0.00048871      -0.00116234      -0.00126173      -1.97116755
I       13.06425678      16.41693758      12.69745189      -0.00047647       0.00064194       0.00024157      -1.98321777
I       -0.25157989       7.05289522       3.30430255      -0.00218075       0.00343426      -0.00081947      -2.06086174
C        3.50026213      10.17584214       3.18950762       0.00187202       0.00360270       0.00198979      -8.89869613
H        4.10698649      10.99345641       2.79042168      -0.00383498       0.00619349       0.00056643      -3.45681244
N        3.96225959       9.49877246       4.21872293       0.00072185       0.00559480      -0.00183484      -8.62603479
H        4.85277381       9.73658747       4.65498988       0.00146923       0.00791050       0.00001710      -3.83486890
H        3.43210910       8.74410850       4.66303289       0.00427420       0.00292632      -0.00039348      -3.71999812
N        2.34676993       9.91742609       2.61030937      -0.00192081      -0.00055972      -0.00221565      -8.71843755
H        1.74482799       9.15153858       2.91747447       0.00298968      -0.00158028      -0.00022992      -3.69891384
H       15.15719098      17.11930410      14.81829143      -0.00090835      -0.00172112       0.00055999      -3.78131209
Pb      13.28992732      19.79232758      13.08192182      -0.00005909      -0.00024123       0.00057219      -4.66387279
I       16.48638821      19.52152632      13.14025547       0.00025337       0.00032851       0.00082405      -1.91757256
I       13.27579592      23.01029430      13.03628789       0.00237740      -0.00013599       0.00423879      -1.94829702
I       13.09509396      19.84230971      16.30681928      -0.00162207      -0.00276458       0.00025769      -1.87760702
C        3.36995104      16.46584057       2.94375450       0.00019030       0.00004951      -0.00075719      -8.91202600
H       16.51561370      23.86271345      15.14532861      -0.00129674       0.00142587      -0.00041791      -3.46185646
N        4.27399369      15.50993990       2.96032098       0.00218157       0.00286933      -0.00222321      -8.67113480
H        4.95923194      15.43626086       2.21106638       0.00255346       0.00485312      -0.00188688      -3.81031270
H        4.26909545      14.78838920       3.68357408       0.00372822       0.00144003      -0.00263807      -3.70342686
N        2.43546495      16.59603687       3.86003817      -0.00036902      -0.00248353      -0.00161048      -8.65752370
H        2.36139392      15.95182218       4.64870196       0.00082063      -0.00399484      -0.00184627      -3.68433339
H       14.89580698      24.04439907      16.84425019      -0.00183240      -0.00409028      -0.00037165      -3.83450659
Cs       3.45986753      16.25165268       9.68362542       0.00000635      -0.00053540      -0.00096037      -3.67710500
