233
Lattice="-12.957396986651146 6.351727325886291 13.017959588757243 13.11604327292129 6.668741413988977 13.017959588757243 13.195366416056363 13.17897578392661 -6.508979794378622" Properties=species:S:1:pos:R:3:forces:R:3:energies:R:1 energy=-1066.1063201016477 stress="-0.0001472818851256341 0.000117352951420736 -0.00017247152903559533 0.000117352951420736 -3.807603775569333e-05 -0.00014741868299608906 -0.00017247152903559533 -0.00014741868299608906 -0.00013783391680968928" free_energy=-1066.1063201016477 pbc="T T T"
Pb      -6.37397065       6.43278288      12.98898242       0.00230793      -0.00103527       0.00045228      -4.62162301
I       -3.12862989       6.69264404      13.09598141       0.00091840      -0.00216998       0.00507662      -1.98114215
I       -6.25363846       9.72422241      13.06635515       0.00149903      -0.00056689       0.00072025      -1.96065711
I        6.71845817      19.23093161       9.72953067       0.00027759      -0.00341472       0.00051269      -2.04759082
C       -3.15260447       9.64385904      15.88270215       0.00116757       0.00228039      -0.00029482      -8.92481591
H       -3.45140325       9.81085899      14.84356696       0.00156623      -0.00292985      -0.00082843      -3.45932681
N       -3.32115372       8.44198473      16.39193643       0.00110035      -0.00030460       0.00353689      -8.71921894
H        9.52189363      20.86184377       9.30501331       0.00300499      -0.00027085       0.00438212      -3.77886779
H       10.06778486      21.40707694      10.86198580       0.00064999       0.00416418       0.00296890      -3.68837373
N       -2.65841669      10.65753128      16.56247809      -0.00181562       0.00068795      -0.00242574      -8.70803385
H       -2.26512854      10.53291503      17.49788292      -0.00242500       0.00549250      -0.00147862      -3.71587432
H       -2.52549610      11.56054059      16.11552384      -0.00198334       0.00210593      -0.00491475      -3.76441702
Pb       0.35243051      19.57874886       6.52858861       0.00067978       0.00094135       0.00139047      -4.64139453
I        3.57099575      19.39547579       6.76716864       0.00118923      -0.00112429      -0.00175133      -2.02435496
I       13.27499906       9.95780442      13.29747390       0.00380278       0.00073767      -0.00067772      -1.98843420
I       13.29612316      13.25977367      -3.23690999       0.00405431       0.00125489       0.00097658      -1.97197795
C        3.40424076       3.30831235       3.63413644      -0.00161092       0.01716729       0.00467456      -8.89044371
H        4.02830252       3.65480204       4.46352695      -0.00576635      -0.00242150       0.00565280      -3.46325477
N        2.72621342       4.19891717       2.93884665       0.00161394      -0.01320062       0.00362564      -8.71833621
H        2.73971081       5.17822557       3.19427005      -0.00512884       0.00715215       0.01236465      -3.70868529
H        2.09799509       3.92290821       2.17872676       0.00357487       0.00434427       0.00378209      -3.74284142
N        3.38049015       2.02087963       3.36036309       0.00209482      -0.01303809      -0.00829468      -8.66291725
H        2.80889441       1.63392150       2.60983406       0.01242236       0.00570107      -0.00293493      -3.69265837
H        4.12410789      20.88041080      10.44272869       0.00321993       0.00274885      -0.00459330      -3.81029085
Pb       0.11367387       6.49457114       6.68508647      -0.00223502       0.00144060       0.00130183      -4.66113709
I        3.37243270       6.27577621       6.73153053      -0.00086469      -0.00237915       0.00119897      -1.98477811
I        0.33048314       9.81405186       6.75948944      -0.00159345       0.00114680      -0.00120929      -1.99502697
I       -0.01096971       6.33206012       9.87980896      -0.00522998       0.00241796       0.00129536      -1.95211863
C        3.28695038       9.51438918       9.50773716      -0.00483602      -0.00353206      -0.00133512      -8.88498590
H        3.60513904       9.86542149       8.52139408      -0.00802779      -0.00388839      -0.00260338      -3.44943765
N        4.02977113       8.61649936      10.11799009      -0.00140392      -0.00186408      -0.00277355      -8.62775494
H        4.88835360       8.26441312       9.69664967      -0.00199079      -0.00052180      -0.00487751      -3.81673371
H        3.73655991       8.17358045      10.99551969       0.00115658      -0.00244760      -0.00223016      -3.76242425
N        2.18478053      10.01119317      10.03151799      -0.00382056      -0.00508887       0.00116277      -8.62382695
H        1.87685713       9.78111244      10.98049049      -0.00079659      -0.00418173       0.00244833      -3.74373535
H        1.61160884      10.67651411       9.51788256      -0.00657041      -0.00642917       0.00201392      -3.80725562
Pb       0.13559118       6.45152880      13.14159929       0.00027628      -0.00002287       0.00148345      -4.67118673
I        3.41177045       6.45378324      13.03583094       0.00104035      -0.00278332      -0.00226627      -1.98988207
I        0.48835667       9.78411513      13.36067965       0.00279039       0.00017359       0.00527258      -2.04316985
I       13.33946448      19.52336581       9.87760119      -0.00006198      -0.00210742       0.00127017      -1.96008828
C        3.66540568       9.82938681      16.33376289       0.00379293       0.00293421      -0.00015786      -8.90856762
H        4.53629790       9.91989433      16.99016964      -0.00034767      -0.00374946       0.00408513      -3.47051178
N        2.68783543       9.02948842      16.70783277      -0.00205252      -0.00576509      -0.00481571      -8.66658189
H       15.98481583      21.61407806      11.02133778      -0.00002904      -0.00763316      -0.00783615      -3.84008186
H        1.88484143       8.85627319      16.10273290       0.00275354       0.00135721      -0.00570676      -3.66752834
N        3.63740941      10.54229690      15.22862980      -0.00008604       0.00364453       0.00921085      -8.66160890
H        2.85831287      10.46178326      14.56875849       0.00491951       0.00964712       0.00447850      -3.74593161
H        4.42111443      11.13607790      14.97148197       0.00365871       0.01139428       0.01272018      -3.78887789
Pb       0.23538218      13.05672458       6.53076337       0.00029289       0.00148227       0.00021677      -4.62904208
I        3.50090630      13.59555714       6.78987289      -0.00018156       0.00161244       0.00275189      -2.04394132
I        0.18639603      16.32425002       6.80664168      -0.00136276       0.00084317       0.00380806      -2.05629659
I       -0.02152709      13.02208531       9.82839884      -0.00554421      -0.00462632       0.00074168      -2.07447905
Pb       0.22453197      13.12622665      13.11603283       0.00024104      -0.00058420       0.00063380      -4.60819726
I        3.42934289      13.30484197      12.66466466      -0.00028722      -0.00215876      -0.00150480      -2.02568640
I        0.33107341      16.29413036      12.75511888       0.00197161      -0.00004908      -0.00190063      -1.95146590
I        0.18530923      13.33172762      16.34527193       0.00416741       0.00116761       0.00050150      -2.02783380
C        3.45521467      16.31089982      16.64269426       0.00003598      -0.00146073      -0.00022438      -8.91000144
H        2.84179087      16.44798517      17.53822453      -0.00355625      -0.00137680       0.00016876      -3.46599757
N        3.34754043      15.17536156      15.98504967       0.00282042       0.00466143       0.00169941      -8.66510765
H        2.68213813      14.46291328      16.28295065       0.00299713       0.00155180      -0.00578389      -3.82834437
H        3.87857325      14.98705873      15.13574756       0.00920545       0.00428598       0.00004209      -3.67452670
N        4.26104828      17.28381591      16.27826787       0.00015178       0.00491171       0.00799127      -8.68085357
H        4.85960620      17.20133400      15.45289870       0.00339406       0.00514248       0.00804192      -3.72912380
H        4.31514194      18.14238861      16.82088948      -0.00244168       0.00064251       0.00824513      -3.78569009
Pb       0.21970929      13.09455958      19.63984023      -0.00079544      -0.00002506       0.00085884      -4.64926935
I        3.42754854      12.89050388      19.39434523      -0.00067689      -0.00133814       0.00582700      -1.95935621
I       13.58243752       9.94870908       6.70279750      -0.00115874       0.00001043       0.00148891      -2.00614890
I        0.49442613      13.15913758      22.83499377      -0.00091680      -0.00399605       0.00083136      -1.92897042
C        3.43455913      16.20299624      22.63713459       0.00156178      -0.00059544      -0.00264248      -8.89980990
H        3.01425509      15.36771568      22.06870565       0.00423584       0.00066422      -0.00741355      -3.45276115
N       15.61704191      10.88498768       9.87911040      -0.00124636      -0.00243576      -0.00301318      -8.69698507
H       14.66944828      10.92672193       9.51514539       0.00065693      -0.00223886      -0.00602968      -3.75467618
H       15.88904692      11.58976711      10.57107905      -0.00314767      -0.00270623      -0.00114501      -3.73802118
N        4.68921252      16.12529753      23.03002755      -0.00101458      -0.00136243       0.00181262      -8.67164137
H       -7.94572419      10.25303381      10.42931892      -0.00277280      -0.00203765       0.00707506      -3.68078041
H       -7.87211064       8.61813835       9.82944814       0.00098439       0.00005909       0.00162414      -3.84797109
Pb       6.56796004       6.59539857      -0.01274557       0.00051979      -0.00031741      -0.00043116      -4.64906387
I       -3.08679943      12.91759185      13.42368464       0.00045111       0.00040297       0.00024227      -2.04388764
I        6.83990585       9.85104640      -0.43948293      -0.00064759      -0.00019160      -0.00118103      -2.00006581
I        6.34049130       7.11834005       3.21003600      -0.00186663       0.00112541      -0.00025760      -2.06148442
C        9.94798072       9.56817219       3.16862646      -0.00951524      -0.01428121      -0.00859506      -8.90404070
H       10.09710274       8.54353902       2.81727088      -0.00138380       0.00218932       0.00109204      -3.47015345
N       10.94271122      10.17015795       3.78211773       0.01303633       0.00750722       0.01085014      -8.69770417
H       11.82202903       9.68326893       3.93461511      -0.00466799      -0.00233328      -0.00021184      -3.76247547
H       10.82950676      11.08908293       4.21754136       0.00037735      -0.00845547      -0.00132226      -3.73558562
N        8.77962378      10.13347389       2.94648758       0.00177802       0.00577647       0.00268195      -8.69024418
H        8.57005459      11.09743981       3.21576591       0.00114478      -0.00448977      -0.00114292      -3.71166302
H        8.05446626       9.63360827       2.43914433      -0.00144794      -0.00203420      -0.00254499      -3.78315611
Pb       6.67061770       6.67136688       6.46671885      -0.00100661      -0.00064401      -0.00028767      -4.65281909
I        9.88802995       7.03372650       6.38902646      -0.00111571      -0.00065474      -0.00230462      -1.95688952
I        6.30301658       9.89152323       6.80722665      -0.00261254      -0.00038214       0.00174278      -1.94666512
I        7.09438718       6.52540349       9.67681780       0.00071428      -0.00136840      -0.00054887      -2.02366788
C        9.65723761       9.77989203       9.67025601      -0.00036282      -0.00038094       0.00052367      -8.90585789
H        8.95783289       8.93976142       9.61408897      -0.00384321       0.00114578       0.00360504      -3.46855994
N        9.65571724      10.52147313      10.75750449       0.00162167       0.00005008       0.00322123      -8.65492873
H        8.96994768      10.35658927      11.49495811       0.00332638       0.00142847       0.00293692      -3.83669256
H       10.24855343      11.34782737      10.84262589       0.00413379      -0.00154412       0.00082257      -3.68400334
N       10.46296972       9.98823475       8.65148577      -0.00408608      -0.00346095       0.00231749      -8.68279586
H       11.14243067      10.74886344       8.65564593      -0.00068295      -0.00362083      -0.00067232      -3.68838734
H       10.44220542       9.36839929       7.84242514      -0.00534314      -0.00301686       0.00096621      -3.81534818
Pb       6.67922492       6.62250951      12.95167437       0.00014708       0.00118448      -0.00019105      -4.64298469
I        9.94778697       6.68310507      13.13160139       0.00080420       0.00648728       0.00247649      -2.02711234
I        6.61392761       9.89516217      12.84784353      -0.00123428       0.00013515      -0.00296079      -1.99009754
I       19.55411229      19.90082100       9.66130648       0.00092241       0.00093672      -0.00012244      -1.93668239
C        9.83180868      10.10767408      16.39475368       0.00117024       0.00307112       0.00118913      -8.89991354
H        9.28757669      10.87596852      16.95196916       0.00577334       0.00371048       0.00460917      -3.46181293
N       -1.97288797       3.39061935       3.49737092       0.00156414      -0.00163584      -0.00339756      -8.68892838
H       -1.47438496       4.05051228       4.08810826       0.00557623      -0.00377462      -0.00376924      -3.79837444
H       -1.41786221       2.65648351       3.05742197      -0.00215179      -0.00181544      -0.00665652      -3.70008798
N        9.14824226       9.27736931      15.63643471      -0.00357689       0.00678997       0.00194710      -8.68382419
H        9.60496581       8.57840988      15.04271642      -0.00796312       0.00615170      -0.00042279      -3.74645757
H        8.13648852       9.32926460      15.57647208      -0.00399503       0.01030191       0.00532235      -3.75908272
Pb       6.76762581      13.15763858      -0.14309667       0.00042514      -0.00062685      -0.00051555      -4.66254168
I        9.99804122      13.11114717      -0.23355146       0.00048262      -0.00113035       0.00091562      -1.96857506
I        6.81280542      16.34294830      -0.32548172       0.00152625      -0.00016878       0.00221860      -1.94101305
I        6.70975692      13.19114182       3.19934671      -0.00094059      -0.00257692       0.00034910      -1.98092180
C       10.27923930      16.41923546       3.00532989       0.00280885      -0.00675554      -0.00323774      -8.87640974
H       10.74747199      16.97092701       2.18469786       0.01222868      -0.01059381      -0.00532272      -3.46936661
N       10.15754801      17.01615989       4.17371333       0.00600616       0.00922202      -0.00819697      -8.71273527
H       10.54301299      17.94168666       4.34052695       0.01097518       0.00106950      -0.01247374      -3.77690757
H        9.58229251      16.61434515       4.91446756      -0.00414975       0.01482679      -0.00720966      -3.69047114
N        9.85661190      15.19305708       2.78043146      -0.00116127       0.00333680       0.00027922      -8.63362799
H        9.49474245      14.60872467       3.53515973      -0.00829661       0.00366508       0.00524658      -3.70630260
H        9.95157868      14.75006565       1.86382769      -0.00269306      -0.00604286       0.00462227      -3.85782237
Pb       6.68551141      13.09523329       6.50194540       0.00003956      -0.00099773       0.00009790      -4.62480363
I        9.99845468      13.04536670       6.07710081      -0.00096024      -0.00516464       0.00097194      -2.00678836
I        7.04512561      16.37801661       6.37028319       0.00686733      -0.00079714      -0.00660321      -2.00844094
I        6.80890570      13.51771917       9.70569646       0.00068824       0.00282976       0.00001949      -1.94529431
C        9.86927105      16.60318989       9.77153914       0.00131424      -0.00127635      -0.00309765      -8.90458271
H        9.10710505      17.38459925       9.84972754       0.00224066       0.00078145      -0.00569909      -3.47107627
N       10.70328130      16.44074566      10.77561176      -0.00015797       0.00207123      -0.00010070      -8.66081568
H       10.67782938      17.06521440      11.57969793      -0.00023160       0.00393139      -0.00317907      -3.81664062
H       11.40554700      15.70032696      10.76198319       0.00005456       0.00134684       0.00169496      -3.70262837
N        9.90072591      15.87578003       8.67604307       0.00075241      -0.00375580       0.00091837      -8.63383116
H       10.59298818      15.13801549       8.54621089      -0.00018959      -0.00722252       0.00431655      -3.68905751
H        9.18954587      15.99296764       7.95255996       0.00296427      -0.00530659      -0.00135130      -3.85118621
Pb       6.70046966      13.19195656      12.89312015      -0.00056383      -0.00069220      -0.00070878      -4.63609591
I        9.92694813      13.22613550      13.28913743       0.00004571       0.00010718       0.00080611      -1.96771630
I        6.46564278      16.39076190      13.24973260      -0.00348047      -0.00069118       0.00544490      -2.00733940
I        6.57901501      13.01046509      16.17459061       0.00050178      -0.00270508      -0.00003087      -1.97929336
C        9.99122166      16.21681011      16.02012430       0.00844591       0.00004393      -0.00471524      -8.89584414
H       10.27008065      15.42918644      15.31393973      -0.00076673       0.00772791      -0.00511673      -3.48318582
N       10.91717020      17.06096947      16.41967276      -0.00061572       0.00057570       0.00207684      -8.71001575
H       11.85500944      17.02356394      16.03089839      -0.00274235       0.00436737       0.00138541      -3.75372518
H       10.72138833      17.78566110      17.11606877      -0.00212860      -0.00186036       0.00539369      -3.72426019
N        8.73967532      16.26331494      16.42770215      -0.01230080      -0.00492697       0.00422193      -8.71645732
H        8.40011966      16.99954128      17.04470072       0.00235534      -0.01251491       0.00918872      -3.67091662
H        8.06144852      15.57004022      16.11918547       0.00422361       0.00059930      -0.00068119      -3.79451424
Pb       6.69931135      13.05107787      19.44992215      -0.00046444      -0.00042288       0.00075833      -4.66684723
I       -3.16405974       6.23715772       6.46928636      -0.00056062       0.00438269      -0.00075730      -1.96381566
I        6.85873637      16.35649589      19.61883334      -0.00713783       0.00073511      -0.00296524      -1.94344196
I       -6.68621225       6.19244203       9.71940064       0.00840388       0.00439959       0.00015189      -2.00379940
C       -3.37991327       9.73575376       9.76572983      -0.00219540       0.00007378      -0.00335111      -8.90622126
H       -4.39770887       9.46612635      10.05806688       0.00044344      -0.01043982       0.00109895      -3.43934804
N       -2.93905644       9.36623000       8.58096260      -0.00823251       0.01048387      -0.00723389      -8.68106397
H       -3.54196349       8.86808747       7.93010441      -0.00790613       0.01067702      -0.00749338      -3.78284090
H       -1.98307886       9.55774487       8.26687279      -0.00866093       0.01456954      -0.00980308      -3.73788609
N       -2.63926888      10.40695228      10.62806574      -0.00473386      -0.00015941      -0.00332423      -8.69274817
H       -1.74247039      10.81177869      10.35517201      -0.01081954       0.01481452      -0.00754353      -3.70962398
H       -3.01737999      10.70801904      11.52295903      -0.00114353      -0.00884609       0.00063125      -3.77866425
Pb       6.79434331      19.65715758      12.99447775      -0.00013217      -0.00051201       0.00085929      -4.63660707
I       10.05571455      19.43984005      12.98713147       0.00003488      -0.00102631       0.00128711      -2.00595243
I       19.90701508      16.54968471      -0.35775445       0.00145858      -0.00060474      -0.00025225      -1.96089970
I        6.96869567      19.82569496      16.22129233      -0.00162366       0.00292282      -0.00051331      -1.96089135
C       10.13795430      22.83300804      16.50641985       0.00298870      -0.00121179      -0.00053214      -8.91586801
H        9.57362079      22.72350845      17.43738092       0.00141976      -0.00166941      -0.00112489      -3.46985071
N        9.49942764      22.66030843      15.36739795       0.00471910      -0.00197916      -0.00098838      -8.74988955
H        8.52129981      22.38749001      15.34242560       0.00528574      -0.00269531      -0.00287438      -3.76526833
H        9.98785429      22.74121735      14.47694136       0.00670106      -0.00234196      -0.00063437      -3.65380956
N       11.41491189      23.14908771      16.57182763       0.00235477      -0.00002658       0.00208724      -8.63990763
H       11.97381431      23.23157516      15.71857141       0.00364331       0.00149945       0.00268262      -3.72294813
H       11.89658450      23.22853382      17.46798177       0.00098865       0.00035007       0.00249263      -3.82979337
Pb       6.85955331      19.61181253      19.49559502      -0.00007672       0.00108520      -0.00038158      -4.66130201
I       10.13727711      19.53700777      19.26548964      -0.00033543      -0.00010127      -0.00066877      -1.95906658
I       19.93524732      16.55627359       6.20793616       0.00321442       0.00051293       0.00041791      -1.98752917
I       -6.56678737      12.99128649       9.73513569       0.00475961      -0.00230929      -0.00030477      -1.99838386
C       10.02742693       9.80460009      -3.48826633      -0.00104802      -0.00154986       0.00008163      -8.90964583
H       -2.11436015      16.14044115       8.79964321       0.00043224      -0.00327719       0.00018329      -3.46318606
N        9.18877289      10.81778895      -3.51460139       0.00193287       0.00086294      -0.00329034      -8.66648313
H       22.41216998      18.23557651       8.82115900       0.00352879      -0.00048963      -0.00303605      -3.82601773
H        8.40769754      10.88250982      -2.86071577       0.00015435       0.00243833      -0.00382573      -3.69744311
N       -3.02565840      15.15715984      10.38117859      -0.00294137       0.00046635      -0.00074503      -8.65047242
H        9.21642337       8.79614086      -1.90832034      -0.00552263       0.00160980      -0.00103033      -3.69179535
H       -2.32771138      14.41412026      10.38350158      -0.00528838      -0.00146255       0.00169042      -3.82773940
Pb      13.26984054      13.16782003      -0.01632480       0.00037241      -0.00037191       0.00057023      -4.64407366
I        3.55921523      19.47421809      12.96147417       0.00015804       0.00364445      -0.00008350      -1.97966054
I        0.11243782       3.27728515       6.58657535      -0.00033909       0.00072645       0.00031255      -1.94875522
I       13.35677372      13.01869284       3.30399573      -0.00095136      -0.00002844       0.00107214      -1.97425021
C       16.55379914      16.35150306       3.62577445       0.00075742      -0.00124857       0.00131124      -8.89050341
H       16.92560407      15.62314229       4.35271537      -0.00281150       0.00216905       0.00648644      -3.46811428
N       17.33519687      17.35560192       3.28881860       0.00568781      -0.00575248      -0.00314762      -8.67413341
H       18.24266345      17.47654991       3.73104060       0.00489939      -0.00694962      -0.00277750      -3.77892835
H        3.88487941       4.82771093       9.04860732       0.00713142      -0.00729049      -0.00507186      -3.73655238
N       15.34611679      16.17476209       3.13546063       0.00166510      -0.00009117       0.00045704      -8.65487880
H       14.89697187      16.86873506       2.53742949       0.00638955      -0.00430387      -0.00869862      -3.69283203
H       14.79585535      15.34611816       3.36494909      -0.00181179       0.00360973       0.00438166      -3.84097353
Pb      13.28896054      13.22666078       6.48037405      -0.00114136       0.00025819       0.00071839      -4.64575857
I       16.55535227      13.27167852       6.31023769      -0.00111471       0.00238824       0.00452467      -1.97934935
I       13.30048128      16.41680357       6.67989678      -0.00024562       0.00027626      -0.00188523      -1.89559876
I       12.54677615      13.17646003       9.83266810      -0.00019466      -0.00045123       0.00109586      -2.08170974
C       16.35885356      16.75829460       9.72873174       0.00014799       0.00219519      -0.00058969      -8.90185473
H       15.73039528      17.64250353       9.58650455       0.00369373       0.00447311      -0.00338762      -3.47372405
N       17.42566289      16.61568156       8.97195204      -0.00118786      -0.00425669      -0.00222518      -8.70948060
H       17.66999931      17.31578129       8.27631767      -0.00022052      -0.00860806      -0.00520732      -3.78937372
H       18.05282051      15.81683440       9.07975954      -0.00397458      -0.00638048       0.00047232      -3.69552230
N       15.99273931      15.88165028      10.63998006      -0.00182487       0.00790354       0.00272237      -8.65502485
H       16.55765403      15.05951793      10.86002110      -0.00517594       0.00549406       0.00521313      -3.68493615
H       15.18978247      16.05376805      11.24401229      -0.00101079       0.01226373       0.00256957      -3.83382537
Pb      13.11553581      13.18359751      13.14250837       0.00018514       0.00073313       0.00054413      -4.64145964
I        3.34033927       6.39325895      -0.15443187       0.00026934       0.00027916      -0.00556694      -2.00692317
I       13.37153741      16.46956875      13.33332482      -0.00211579       0.00089168       0.00268913      -2.02127070
I       -0.06027431       6.69809540       3.36423495       0.00008295      -0.00058367       0.00101967      -2.01667666
C        3.14861523       9.90163117       3.13110231       0.00217416       0.00240909      -0.00116505      -8.89364087
H        2.25793874      10.52885891       3.03566005      -0.00302803       0.00050403      -0.00014391      -3.48132105
N        4.31464809      10.41727855       2.80084028      -0.00701401      -0.00237106      -0.00020933      -8.72406607
H        4.39985487      11.36444192       2.44276389      -0.00343584       0.00238202      -0.00449162      -3.78516600
H        5.16277853       9.85846223       2.88259174      -0.00151167       0.00180198      -0.00162126      -3.65037582
N        3.01380067       8.67288025       3.58102211      -0.00146044       0.00115186       0.00202731      -8.60770665
H        3.83108109       8.06337957       3.67632656      -0.00025126       0.00178191       0.00150537      -3.73245627
H        2.09324406       8.26936469       3.76015162      -0.00023254       0.00131488       0.00333681      -3.84042095
Pb      13.27668316      19.71822381      13.09854989      -0.00022570       0.00093037       0.00082155      -4.65071146
I       16.56684069      19.85789218      13.09155694       0.00011590      -0.00127603      -0.00300962      -2.04939752
I       12.72760994      22.98688661      13.08225402      -0.00026873       0.00043065      -0.00124401      -2.07503538
I       13.60141064      19.74819866      16.35761316       0.00159369       0.00276230       0.00095070      -1.98142646
C        3.43975640      15.89190825       3.24373123       0.00445530       0.00094985      -0.01080758      -8.92601626
H        3.22305266      14.82546797       3.34965521       0.01162187      -0.00681246       0.00108841      -3.45829535
N       16.65070000      23.05945241      15.04830506      -0.00332211      -0.01171021       0.00870057      -8.70642994
H       16.59463844      22.44012500      14.24253924       0.00102774      -0.00370881       0.00007736      -3.79006390
H        3.61568292      10.87328749      21.37472823      -0.00789958       0.00117005      -0.00137584      -3.68999952
N        3.57178267      16.60978043       4.33955464      -0.00162708      -0.00718352       0.00913174      -8.75619877
H        3.85021282      17.58923994       4.31402004      -0.00937235       0.00192370      -0.00069190      -3.64459892
H        3.49133141      16.16966106       5.25240408       0.00401579      -0.00080067      -0.00454545      -3.77081071
Cs       3.49843904      16.32874115       9.90135034       0.00008940       0.00180612       0.00218891      -3.67454137
