233
Lattice="-12.957396986651146 6.351727325886291 13.017959588757243 13.11604327292129 6.668741413988977 13.017959588757243 13.195366416056363 13.17897578392661 -6.508979794378622" Properties=species:S:1:pos:R:3:forces:R:3:energies:R:1 energy=-1065.8634782309018 stress="-0.00013362065685626316 0.000473286519578762 -8.126403868266971e-05 0.000473286519578762 -2.4968799767872075e-05 0.0002843065367516952 -8.126403868266971e-05 0.0002843065367516952 -0.0003425592223467713" free_energy=-1065.8634782309018 pbc="T T T"
Pb      -6.43202457       6.41924797      13.00320350      -0.00074861      -0.00016398       0.00005839      -4.63372217
I       -3.17523340       6.55987274      13.18627024       0.00003404      -0.00384608      -0.00269160      -1.99988049
I       -6.21646372       9.71728405      13.04714074       0.00305792       0.00038342       0.00217648      -1.94344860
I        6.60126966      19.45550023       9.80458001       0.00144838       0.00022101      -0.00032158      -2.02178881
C       -2.95598439       9.56649573      16.50968056       0.00197934      -0.00043606       0.00260027      -8.88249164
H       -2.51250557       9.98628172      17.41827266       0.00576636      -0.00345282       0.00212156      -3.47144623
N       -2.98362287      10.31703082      15.42811297      -0.00397501       0.00379722       0.00571070      -8.72865945
H       -2.51572558      11.21922455      15.40363072      -0.00461852       0.00408003       0.00703244      -3.78186354
H       -3.49097562      10.03041481      14.59121648      -0.00758846       0.00644503       0.00692961      -3.65782601
N       -3.44990832       8.34710579      16.56028353       0.00381054      -0.00124729       0.00025326      -8.64498269
H       -3.73149410       7.85420420      15.71038711       0.00082655       0.00119181      -0.00008335      -3.70902594
H        9.79169738      20.97921459      10.91411329       0.00671408      -0.00366434      -0.00144210      -3.84658809
Pb       0.27679980      19.43295725       6.66045196      -0.00103478      -0.00165772       0.00122064      -4.62694220
I        3.54037209      19.33985224       6.85181203      -0.00060011       0.00076108       0.00111519      -2.01349976
I       13.41923963       9.76283126      13.01850443      -0.00203722      -0.00158582      -0.00175077      -1.93026097
I       13.46016894      13.12768977      -3.19483363      -0.00486379       0.00161631       0.00077558      -1.99963360
C        3.06229395       3.03988747       3.30590146      -0.00459948      -0.00059434      -0.00157082      -8.88166060
H        2.54193798       2.14943849       2.94107988      -0.01002741       0.00079605       0.00297998      -3.46930018
N        3.27089890       4.03029701       2.46439794       0.00087154      -0.00599818      -0.00641535      -8.71025815
H        2.87324717       4.01415328       1.52960109       0.00044301      -0.00857059      -0.00619200      -3.77214987
H        3.83921342       4.84070251       2.71430617       0.00344280      -0.00675556      -0.00981275      -3.69794978
N        3.46077479       3.05991267       4.56101208      -0.00389805       0.00285206      -0.00181057      -8.66257889
H        3.80925779       3.91290284       4.99945224       0.00174006       0.00243546      -0.00577765      -3.70432216
H       16.50479148      15.43437860      -1.33914889      -0.00846113       0.00646553       0.00166977      -3.83480385
Pb       0.01402285       6.32702044       6.43637998      -0.00110829      -0.00028379       0.00184222      -4.67247578
I        3.27216187       6.53209959       6.37558516      -0.00079011       0.00085054       0.00480906      -1.95782662
I       -0.19508836       9.67707005       5.97270805      -0.00497347      -0.00040135      -0.00114608      -2.01477002
I        0.16620015       6.17681341       9.74451402       0.00388251      -0.00241170       0.00180844      -2.02493258
C        3.65794626       9.68511942       9.64858117       0.00437312      -0.00427605      -0.00047346      -8.89356683
H        4.65604829       9.40971315       9.29630992       0.00185665      -0.01580416       0.00140336      -3.45993104
N        3.24773695       9.21159017      10.80501177      -0.00143168       0.00378648       0.00021711      -8.65252300
H        3.85938984       8.64861801      11.39061187      -0.00844399      -0.00208372       0.00233853      -3.79485610
H        2.33101977       9.43571562      11.20059913      -0.00036245       0.01216677      -0.00229042      -3.73525030
N        2.91162764      10.44792191       8.87393806       0.01365109       0.00155731      -0.00344114      -8.64894618
H        2.04745477      10.88207230       9.22084852       0.01635717       0.00945360      -0.00636678      -3.76320496
H        3.29301194      10.83340399       8.01389227       0.01833695      -0.00575396      -0.00456279      -3.75448683
Pb       0.10216727       6.26609280      13.08059718       0.00031466       0.00086945       0.00114290      -4.65540436
I        3.36899989       6.16672853      13.03704026       0.00100663       0.00271490       0.00150008      -1.94071541
I        0.39236994       9.60473613      13.14536061      -0.00109232       0.00016534       0.00355201      -2.02244048
I       13.29636565      19.24818320       9.75049260      -0.00227461      -0.00334583       0.00110840      -1.94797139
C        3.25792596       9.74299658      16.53513475      -0.00488467      -0.01055158       0.00403660      -8.91991316
H        2.88746920       9.80235716      17.56126729      -0.00284373       0.00198876       0.00302253      -3.46718511
N        3.09733228       8.61176328      15.88133999      -0.00299501      -0.00123814       0.01489464      -8.74769350
H       15.81896511      20.99939056       9.80048117      -0.00156270      -0.00234778       0.01085454      -3.77643459
H        3.41697081       8.48915893      14.92154401      -0.00167224      -0.00891043       0.00476855      -3.66091546
N        3.82947147      10.80895717      16.01357049       0.00347170       0.00156416      -0.00449314      -8.72579146
H        4.20360151      10.80777152      15.06391318       0.00115865      -0.00963821       0.00412190      -3.69849850
H        3.96790010      11.64655044      16.57321811      -0.00151230      -0.00335446      -0.00341001      -3.77948878
Pb       0.21813672      12.98774406       6.43097147      -0.00071291      -0.00087081      -0.00025137      -4.62015028
I        3.45905334      13.46563438       6.56741199      -0.00039357      -0.00120802      -0.00535368      -2.01580123
I        0.27784105      16.16193382       7.08028602      -0.00058237      -0.00167394       0.00266280      -2.01977566
I        0.13786841      12.64764039       9.70687971       0.00808920      -0.00602082       0.00005533      -2.00041730
Pb       0.21632099      12.84861917      12.93865167      -0.00116813      -0.00000309       0.00089485      -4.62871433
I        3.44509072      13.05337379      12.80023818      -0.00143962       0.00280525       0.00408466      -1.95628831
I        0.49643701      16.14110294      12.72756905      -0.00554069      -0.00006517      -0.00156111      -2.05858470
I       -0.12134279      12.96098834      16.18959070      -0.00271045       0.00163029       0.00081179      -1.96190808
C        3.31640216      16.47981728      16.20824092      -0.00074341       0.00471770      -0.00155919      -8.89418991
H        3.36870395      17.37039282      15.57537378      -0.00106759       0.00231030      -0.00417887      -3.46031557
N        2.71961520      15.40683298      15.73125522      -0.00577971       0.00353443       0.00197958      -8.67443088
H        2.29839785      15.40955351      14.80358954      -0.00758519       0.00324074       0.00335794      -3.83586278
H        2.55585731      14.58930669      16.31834034      -0.00386465       0.00558445       0.00372799      -3.67053812
N        3.85254875      16.52608045      17.40965714       0.00198021       0.00501203      -0.00418066      -8.65133068
H        3.88393275      15.69173300      18.00157804       0.00255119       0.00696661      -0.00205144      -3.75502983
H        4.30015702      17.36719152      17.76135911       0.00606171       0.00550030      -0.00732754      -3.79408486
Pb       0.01990094      12.80139069      19.35358218      -0.00001875      -0.00050253       0.00023247      -4.66505116
I        3.33549998      13.22716879      19.07711791      -0.00083775       0.00274486      -0.00357172      -2.05225815
I       12.92947030       9.66801295       6.58877984      -0.00000568      -0.00103244       0.00330542      -1.95534966
I        0.37342846      12.49729413      22.78510005       0.00165711      -0.00453818       0.00051743      -2.10689136
C        3.41574263      16.28398055      22.81108238      -0.00047355      -0.00148947      -0.00082440      -8.88334312
H       16.91794545      10.68845005      10.36468378       0.00040106      -0.00325375       0.00002892      -3.44714366
N        2.99518135      15.20053276      23.43337574      -0.00411791      -0.00109075      -0.00209211      -8.70649409
H       -9.97232984       8.40125282      11.41177463      -0.00560616      -0.00171717      -0.00190459      -3.76772149
H        2.41566076      14.49964948      22.96912890      -0.00427904       0.00023099      -0.00322649      -3.70406751
N        3.22176084      16.48604490      21.52165754       0.00144927      -0.00059579      -0.00141365      -8.67429982
H        2.65697179      15.84790592      20.96101560       0.00036847       0.00138886      -0.00198698      -3.69004147
H       16.47183596      11.00201401       8.05492060       0.00433058      -0.00112135      -0.00038390      -3.84146544
Pb       6.62924762       6.53108098      -0.07596565      -0.00127757       0.00033345       0.00033688      -4.64858004
I       -3.04810791      12.79410815      12.76970469      -0.00064302       0.00075703      -0.00150619      -1.97689214
I        7.31355845       9.88386514       0.01923844       0.00077531      -0.00005904       0.00103681      -2.07912276
I        6.07816751       6.71964576       3.19404865      -0.00502744      -0.00063543       0.00084225      -2.04342274
C        9.97763020       9.98959949       3.40231041      -0.00150040      -0.00114370       0.00234832      -8.90267598
H       10.62701669      10.04563913       4.28073192      -0.00315863       0.00007071       0.00349879      -3.47112748
N       10.51922210      10.12673479       2.20862078       0.00058694      -0.00208686       0.00323888      -8.73787071
H       11.50802211      10.33087747       2.09458012       0.00074086      -0.00160927       0.00483184      -3.76811276
H        9.93374236      10.11975335       1.37344455       0.00247286      -0.00501029       0.00203660      -3.66774223
N        8.69078503       9.76610404       3.57593441      -0.00168680      -0.00168302       0.00017992      -8.68817313
H        8.06431709       9.72426542       2.77028328      -0.00047002      -0.00077936      -0.00081964      -3.69743687
H        8.26765009       9.72974769       4.50254813      -0.00332665      -0.00077620      -0.00044999      -3.80753401
Pb       6.53858956       6.66994439       6.44021292      -0.00101629       0.00042827       0.00003062      -4.64528737
I        9.76768634       6.38415877       6.33041992      -0.00028973      -0.00034976       0.00088819      -1.95138565
I        6.29904219       9.89473112       6.52230603      -0.00429429       0.00020475      -0.00250035      -2.00248170
I        6.86531313       6.85888705       9.71706868       0.00274867       0.00090440       0.00022913      -2.03087052
C        9.97149285       9.88687849       9.73868848       0.00281672      -0.00119937      -0.00227197      -8.89745351
H       10.75805725      10.64679471       9.73063323       0.00218392      -0.00037361      -0.00531723      -3.47050836
N       10.31800008       8.61810439       9.84304224       0.00523554      -0.00087232      -0.00308138      -8.75623661
H       11.29002475       8.32588693       9.89057626       0.00549785       0.00054986      -0.00648974      -3.75022849
H        9.60209058       7.89056743       9.86591605       0.00613351      -0.00181301      -0.00176556      -3.67453247
N        8.71443283      10.27277303       9.65098534       0.00259481      -0.00290383       0.00229703      -8.71408688
H        7.96348156       9.58240896       9.60961736       0.00292346      -0.00382401       0.00680137      -3.68349843
H        8.45028887      11.25339683       9.57072716       0.00096734      -0.00314710       0.00205139      -3.78994217
Pb       6.62999131       6.61367315      12.96920960       0.00181710       0.00164176       0.00050563      -4.66164610
I        9.89526112       6.70967221      13.34358245       0.00016101       0.00383021       0.00229659      -1.96450123
I        6.26165339       9.83250035      13.03784162      -0.00081470       0.00107146       0.00128058      -1.96526236
I       19.85903917      19.93044624       9.71707060       0.00231645       0.00004713       0.00053412      -1.98992373
C        9.89059412      10.15631159      16.34707935       0.00097975       0.00720105       0.00171866      -8.90615133
H       10.20168935      11.10503367      16.79486056      -0.00152831       0.00966416      -0.00217264      -3.46445047
N       -2.30529258       2.57301096       3.10533554       0.00214905       0.00862518       0.00534584      -8.74345387
H       -1.33839736       2.73089515       3.36771945       0.00219778       0.01202990       0.00418797      -3.72559894
H       10.60444587       8.39737701      15.58523093       0.00422694       0.00548052       0.00945457      -3.70901437
N        8.61665494       9.98864770      16.06030341       0.00018047       0.00359419       0.00252384      -8.64698472
H        8.23404512       9.07720117      15.79954858       0.00275738       0.00203766       0.00502386      -3.71956812
H        7.95222357      10.74924563      16.20800054      -0.00057122       0.00254733       0.00010423      -3.83301625
Pb       6.76944779      13.20083655      -0.04173897       0.00030058      -0.00055251       0.00078125      -4.67568065
I        9.97352434      13.57509283       0.10286512      -0.00120389       0.00522503       0.00513042      -1.97541371
I        6.38748232      16.38378397      -0.10390661      -0.00223968       0.00006217       0.00035981      -1.96166566
I        6.60852813      13.21393478       3.20074772       0.00313347      -0.00270199       0.00008315      -1.97419414
C        9.91804349      16.46487860       3.49873673      -0.00304294       0.00154448       0.00286258      -8.93590335
H       10.03572292      17.03814492       4.42348986      -0.00335576       0.00655755      -0.00007131      -3.43510869
N        8.89608079      16.74379616       2.71604848      -0.00310287      -0.00344761       0.00175333      -8.66139086
H        8.24087377      17.49388147       2.94426531      -0.00380928      -0.00273057      -0.00194855      -3.85301861
H        8.74242281      16.24615295       1.83953963      -0.00271756      -0.00803952       0.00416688      -3.66344961
N       10.80235207      15.53064599       3.22335185      -0.00221880       0.00081378       0.00784883      -8.66179220
H       10.72024920      14.95162626       2.38193162      -0.00115964      -0.00268693       0.01022314      -3.74672876
H       11.57944027      15.34677179       3.85278325      -0.00217204       0.00466871       0.00899379      -3.78619632
Pb       6.68068361      13.17819522       6.44787817      -0.00062603      -0.00068470      -0.00012533      -4.64909182
I        9.90910446      12.74951135       6.46595871      -0.00025070      -0.00219688       0.00404025      -1.91439174
I        6.82861686      16.38336065       6.49191433      -0.00278762      -0.00015833       0.00214433      -1.93414143
I        6.56535825      13.37911438       9.72866004      -0.00505453      -0.00530758      -0.00005933      -2.02241158
C        9.92996551      16.46467906       9.50798946      -0.00063960       0.00146796      -0.00144428      -8.91317596
H       10.00210772      17.15488483       8.66167009      -0.00313372       0.00336398      -0.00055218      -3.44852290
N       10.72657937      15.41884060       9.53455459       0.00433019       0.00552152      -0.00247473      -8.66614221
H       11.38954081      15.25589877       8.78055203       0.00653248       0.01046592      -0.00303126      -3.81141422
H       10.68756046      14.73253122      10.29076402       0.00725051       0.00376915      -0.00467595      -3.71261796
N        9.05782385      16.73369452      10.45666778      -0.00218366      -0.00512760      -0.00247150      -8.65167345
H        8.92826590      16.11486788      11.25641962       0.00042157      -0.00624569      -0.00287654      -3.65868928
H        8.42152808      17.52768726      10.37114250      -0.00579845      -0.00658973      -0.00078467      -3.86153843
Pb       6.66858407      13.11627215      12.96414411      -0.00193164       0.00017924      -0.00003725      -4.63538008
I        9.94262534      13.30754513      12.74721480      -0.00123288       0.00284853      -0.00345358      -2.01596363
I        6.52551937      16.34753154      13.14158936      -0.00346888       0.00066145      -0.00327950      -2.00363058
I        6.81377565      13.23781983      16.24572384      -0.00162414       0.00200071       0.00011624      -1.97419463
C        9.80737745      16.37177036      15.88664507      -0.00337206      -0.00000538      -0.00245913      -8.92815882
H        9.07396659      16.41564505      15.07547671      -0.00616661       0.00145045       0.00043763      -3.46379259
N       10.46551057      15.24763355      16.07462304      -0.00106271       0.00345667      -0.00617948      -8.70878981
H       10.33424773      14.45739507      15.44801118      -0.00066215       0.00345963      -0.00817749      -3.78758872
H       11.20079110      15.17422454      16.77889597       0.00144966       0.00239847      -0.00834938      -3.69029936
N        9.97954735      17.44184392      16.63357972      -0.00366624       0.00158570       0.00025671      -8.71022045
H       10.64055140      17.44694373      17.41185177      -0.00134850       0.00012820      -0.00252118      -3.69399268
H        9.43411607      18.28351930      16.47065029      -0.00530224      -0.00071014       0.00267708      -3.77741271
Pb       6.63015152      13.12775202      19.48228301      -0.00151335       0.00035872      -0.00002070      -4.65265108
I       -3.24720123       6.24185341       6.55866184      -0.00113106      -0.00088548       0.00245452      -1.98650434
I        6.77187354      16.40496945      19.50958390      -0.00049479       0.00098117       0.00225692      -1.97830475
I       -6.62741330       6.42827663       9.76818727      -0.00170784      -0.00082532      -0.00008077      -1.96234572
C       -2.95599489       9.79020898       9.74934242       0.00337156      -0.00027408      -0.00060221      -8.88755508
H       -3.34056671      10.72590278      10.16698297       0.00445523       0.00033919      -0.00085927      -3.44307236
N       -1.85963964       9.27757349      10.26913238       0.00269887      -0.00135809      -0.00068609      -8.61968245
H       -1.37594893       9.72645054      11.04617820       0.00346082      -0.00162804      -0.00078150      -3.83035556
H       -1.47196703       8.38315081       9.95481027       0.00188941      -0.00174430      -0.00052922      -3.74058962
N       -3.60451197       9.22856905       8.75078527       0.00241677       0.00017949      -0.00032527      -8.59139761
H       -3.27954011       8.36597723       8.30403835       0.00144132      -0.00020072      -0.00033147      -3.74255644
H       -4.44939963       9.63833889       8.35043713       0.00268256       0.00091749      -0.00013819      -3.83906825
Pb       6.75623610      19.57873677      13.05882828      -0.00102998      -0.00001800      -0.00084638      -4.62619700
I       10.03097476      19.53626714      13.19235900      -0.00081424      -0.00207932      -0.00047358      -1.97847370
I       19.65350738      16.56351076       0.06239736       0.00199925      -0.00006045      -0.00289674      -2.02526213
I        6.71625292      19.55872561      16.29892780      -0.00307288      -0.00023001      -0.00000704      -2.02894965
C       10.10853045      23.20990495      16.23515931       0.00136383       0.00402974      -0.00463911      -8.90910161
H       10.38629310      24.08594863      15.64191497       0.00004031       0.00065490      -0.01030290      -3.44603220
N       10.81535671      22.92169831      17.30887461       0.00666319       0.00811245      -0.00678327      -8.67967390
H       11.62068944      23.48125140      17.57366159       0.00938228       0.00729879      -0.01487627      -3.76152286
H       10.58895402      22.11654078      17.90141795       0.00856358       0.01069026      -0.00253803      -3.75450389
N        9.07898650      22.49123188      15.83945428      -0.00206775       0.00461954       0.00428618      -8.63822852
H        8.76056026      21.67165710      16.35656250      -0.00083002       0.00767282       0.01003272      -3.67788723
H        8.54267534      22.73517349      15.00468459      -0.00500012       0.00109281       0.00521055      -3.85700930
Pb       6.86769766      19.67196024      19.55283728      -0.00081707       0.00142963       0.00017023      -4.66614866
I       10.08945718      19.89250144      19.43506509      -0.00040870       0.00564150      -0.00492533      -2.00301136
I       19.79880198      16.54209615       6.39494109       0.00128071       0.00148849      -0.00229510      -1.95375616
I       -6.42506433      13.01920821       9.73869817       0.00062180      -0.00045618       0.00061163      -1.96052172
C        9.95307419       9.81605063      -3.57497058      -0.00275555      -0.00426851      -0.00684583      -8.89296042
H       -2.50972673      16.31358910       8.47919378      -0.00764764      -0.00049972      -0.00880205      -3.46848186
N       -2.29271003      15.68367351      10.44201349       0.00323264      -0.00555493      -0.01172192      -8.70931433
H       -1.32212250      15.41517075      10.31392440       0.00336927      -0.00213729      -0.01715018      -3.77013212
H       10.21841033       9.02586264      -1.71119489       0.00821977      -0.00978071      -0.01064947      -3.67406935
N        8.68708509      10.15053664      -3.45263434      -0.00265404      -0.00741941      -0.00007034      -8.63577072
H        8.21458006      10.11286979      -2.54484706       0.00123163      -0.01033381       0.00190446      -3.74756822
H       21.26607061      17.13774673       8.76060610      -0.00688176      -0.00676051       0.00279694      -3.81955918
Pb      13.22300859      13.11971670       0.03470781      -0.00178554       0.00008503       0.00161556      -4.63611584
I        3.50800043      19.41903035      13.10963437      -0.00178019       0.00176615      -0.00140684      -2.03056460
I        0.13999916       3.13243828       6.55300622       0.00189729       0.00010769       0.00327805      -1.89274080
I       13.23695098      12.66891563       3.25798963      -0.00160761       0.00064976       0.00132628      -1.95347039
C       16.68031199      16.26004491       3.31653938       0.00210937      -0.00278627       0.00116910      -8.91623604
H       17.55547117      15.60370780       3.30198270      -0.00202451      -0.00831979       0.00304611      -3.45415917
N       16.65576186      17.29031901       2.49698678       0.00924997      -0.00452444      -0.00124806      -8.67869195
H        4.20810572       4.26280775       8.33400267       0.01059917      -0.01102488      -0.00111090      -3.80379252
H        2.66317127       4.74918689       8.97617236       0.01275122      -0.00038418      -0.00418445      -3.70584928
N       15.70280468      15.97983130       4.15199153       0.00010627       0.00539184       0.00132801      -8.65293596
H       14.87815958      16.57456439       4.23023155       0.00345433       0.01047632      -0.00128540      -3.66617065
H       15.77979166      15.19789469       4.80308656      -0.00497818       0.00671946       0.00335041      -3.86053720
Pb      13.04337563      12.85883566       6.48237790      -0.00004034      -0.00032301       0.00181549      -4.64996958
I       16.50694366      13.29381805       6.56400386      -0.00049871       0.00355064       0.00311426      -2.10095607
I       12.80042987      16.20346171       6.43131910       0.00321425      -0.00027091       0.00144791      -2.04201523
I       13.13316882      12.74291707       9.75325331       0.00018068       0.00049798       0.00135851      -1.98015729
C       16.37551988      16.55021724       9.95500894       0.00181512       0.00272777       0.00180624      -8.89004653
H       15.80758214      17.26779051      10.55352801       0.00450310       0.00516531       0.00182687      -3.47519273
N       15.73237541      15.53677330       9.41581669      -0.00308861       0.00206743       0.00658096      -8.71550400
H       14.74728524      15.38093714       9.60087228      -0.00201795       0.00476445       0.01063839      -3.72549580
H       16.18565160      14.88465073       8.77028403      -0.00634297       0.00057824       0.00580122      -3.74014736
N       17.67116955      16.74653770       9.80884570       0.00031174      -0.00054242      -0.00298338      -8.73514780
H       18.26110131      16.06060607       9.33864818      -0.00153563      -0.00354170      -0.00184282      -3.67606118
H       18.11862815      17.59016314      10.15888095       0.00378050       0.00002194      -0.00703429      -3.78280061
Pb      13.27518188      13.06067995      12.99122774      -0.00085154      -0.00177580       0.00077253      -4.66344094
I        3.37582706       6.51075649      -0.25632208      -0.00097546      -0.00379128      -0.00189233      -1.92843900
I       13.34037029      16.27698330      13.07334427       0.00043149      -0.00193104       0.00064081      -1.88447245
I       -0.03366674       6.02257238       3.22963883      -0.00025716      -0.00130226       0.00168403      -1.95812336
C        3.16510581      10.00936749       3.08520619      -0.00475021       0.00011570      -0.00358523      -8.90760377
H        2.50633689      10.88153747       3.14173308      -0.00664131      -0.00067371      -0.01274955      -3.46808599
N        2.72315157       8.85853789       3.54765763      -0.00385390       0.00339294       0.00429892      -8.71618323
H        1.80852124       8.78694945       3.98772922      -0.00524432       0.00521973       0.00244625      -3.79326612
H        3.32584018       8.03602484       3.57714075      -0.00318124       0.00417036       0.01164216      -3.68175322
N        4.35652822      10.15349353       2.54239561      -0.00331473      -0.00172052      -0.00080905      -8.69625052
H        4.99997487       9.36399178       2.47709078      -0.00147571      -0.00080218       0.00795464      -3.69475729
H        4.67632219      11.05869028       2.20760715      -0.00472684      -0.00397035      -0.00846278      -3.78698707
Pb      13.32810167      19.50663625      13.02533242      -0.00141949      -0.00215322       0.00058575      -4.67621128
I       16.61620950      19.57768097      12.82229918      -0.00033046      -0.00412149       0.00336835      -1.97031366
I       13.34911087      22.76296124      12.66438924       0.00024031      -0.00144396       0.00235293      -1.96958575
I       13.52301056      19.86555456      16.25327281      -0.00352979       0.00051562       0.00022962      -1.93583892
C        3.66846556      16.04826059       3.17848127       0.00574355      -0.00359873      -0.00373452      -8.90984778
H        4.48850325      15.32667023       3.23947723       0.00713977       0.00216469      -0.00327538      -3.48440740
N        3.20783027      16.57084235       4.29422855      -0.00506839       0.00431516      -0.00099861      -8.71454500
H        3.56947677      16.27865350       5.19681040       0.00849641      -0.00504978       0.00333417      -3.74624146
H        2.48531906      17.29317309       4.27755763       0.00598570      -0.01106062       0.00165395      -3.71580446
N       16.31492876      23.02811298      15.00548071       0.00960944      -0.00997973      -0.00442433      -8.74246189
H        2.26889460      10.40065613      21.40860275      -0.00826516      -0.00457824       0.00107451      -3.67094762
H       16.71593826      22.61420214      14.16850986      -0.00090888       0.00156006       0.00393094      -3.75641956
Cs       3.62106954      16.32118091       9.83574331      -0.00173047      -0.00081476       0.00005324      -3.68810496
