233
Lattice="-12.957396986651146 6.351727325886291 13.017959588757243 13.11604327292129 6.668741413988977 13.017959588757243 13.195366416056363 13.17897578392661 -6.508979794378622" Properties=species:S:1:pos:R:3:forces:R:3:energies:R:1 energy=-1066.0018428079745 stress="7.932961041681632e-05 0.000512812942157601 1.580318969580222e-05 0.000512812942157601 1.4271751361552098e-06 -0.00027298773059048 1.580318969580222e-05 -0.00027298773059048 -0.00015517966899800353" free_energy=-1066.0018428079745 pbc="T T T"
Pb      -6.44459473       6.36541225      12.91877086      -0.00019025       0.00034423       0.00077633      -4.63767509
I       -3.17994787       6.50413798      12.79037049      -0.00010119       0.00041431       0.00500290      -1.95578020
I       -6.55910445       9.64355105      12.86835996      -0.00235129       0.00060656       0.00320641      -1.91580312
I        6.51284349      19.63354408       9.71794754      -0.00452804      -0.00156280       0.00034415      -2.05942687
C       -3.14567111       9.68528527      16.45752109      -0.00069386       0.00052466       0.00248477      -8.91239978
H       -3.62600194       9.93988124      17.40588538       0.00151633       0.00193429       0.00324902      -3.44226509
N       -2.06499266      10.35011960      16.10268098      -0.00299368       0.00229225      -0.00208753      -8.70021027
H       -1.67285522      11.07342908      16.69931030      -0.00351649       0.00472431      -0.00508549      -3.75591568
H       -1.58504998      10.16253463      15.21735967      -0.00467752       0.00071101      -0.00267592      -3.74135151
N       -3.68011383       8.73118830      15.72148790      -0.00042756      -0.00229207       0.00653363      -8.65560061
H       -3.26577240       8.42287373      14.83873389      -0.00222482      -0.00387719       0.00606844      -3.71329730
H       -4.51350603       8.22900777      16.02479183       0.00116036      -0.00300307       0.00978994      -3.82412330
Pb       0.33882960      19.42506373       6.48982373      -0.00118339       0.00108837       0.00038107      -4.63842716
I        3.50530128      19.09925137       6.68236483      -0.00077961      -0.00368508      -0.00479742      -1.98745573
I       13.70002143       9.85939037      12.77649408       0.00442198       0.00032196      -0.00163141      -2.05400812
I       13.24235202      13.17171635      -3.30153348       0.00049037       0.00053167      -0.00007680      -2.02143583
C        3.40977827       3.68445385       3.49200987      -0.00001638       0.00221786       0.00065238      -8.90420728
H        3.05652727       4.71739392       3.56812589      -0.00087480       0.00243077      -0.00614702      -3.45948975
N        4.61829768       3.46343017       3.02146090       0.00132146       0.00045355       0.00527213      -8.63306978
H        5.24009745       4.23979360       2.79818513       0.00161587      -0.00043308       0.00309189      -3.82185530
H       -7.95074035       8.87034935      15.96800791       0.00106383      -0.00000989       0.00877650      -3.74224189
N        2.58518809       2.72007299       3.84749872      -0.00043607       0.00379827       0.00373023      -8.69105168
H       16.07778664      14.92553192      -2.62757222       0.00112017       0.00445424       0.01276247      -3.64917804
H        1.67865393       2.93053050       4.26251914      -0.00196910       0.00526538      -0.00063119      -3.81942493
Pb       0.17531992       6.47396976       6.36026984      -0.00096241      -0.00046907       0.00035712      -4.66307530
I        3.44956277       6.65264114       6.63741024      -0.00002654      -0.00253465       0.00555260      -2.03916590
I        0.22116737       9.70578961       6.12329575      -0.00126188      -0.00012731       0.00181951      -1.92800234
I        0.17162543       6.53427404       9.70385149      -0.00347854      -0.00195208      -0.00045364      -2.02869801
C        3.37615835       9.99370682      10.00247897       0.00212770       0.00104449       0.00124684      -8.88698171
H        3.01410701      10.65754404      10.79264543       0.00286856       0.00719640      -0.00375841      -3.47085737
N        2.61658529       9.80649219       8.94457788      -0.00062613      -0.00106254       0.00003845      -8.71902160
H        1.73669947      10.30559741       8.84390246       0.00277897       0.00082456      -0.00175886      -3.77290057
H        2.85378523       9.12508148       8.22259108      -0.00072457      -0.00418357       0.00387833      -3.68849029
N        4.55431502       9.42700447      10.16097999      -0.00355141      -0.00188614       0.00446657      -8.71162961
H        4.98544069       8.85741610       9.43241046      -0.00481616      -0.01090456       0.00957632      -3.67988459
H        5.09153915       9.56884629      11.01383117      -0.00211933       0.00002130       0.00439364      -3.80187115
Pb       0.05126640       6.53842391      12.94834492       0.00084259      -0.00029989      -0.00003953      -4.65489917
I        3.38688491       6.37127294      13.01211466       0.00085682      -0.00066726      -0.00084662      -2.00197906
I       -0.22636665       9.75540086      12.82425710      -0.00134902      -0.00009861      -0.00079450      -2.02926745
I       13.39767471      19.83744254       9.68718905       0.00133910      -0.00075432      -0.00058068      -1.99178032
C        3.31112480       9.89703595      16.55047477      -0.00038575      -0.00085100       0.00020443      -8.91528823
H        2.59477640       9.98679051      17.37273852      -0.00219579      -0.00220188      -0.00106740      -3.46292132
N        4.23498166      10.82587518      16.42182282       0.00061959      -0.00106316       0.00491839      -8.67157182
H        4.26178753      11.61563367      17.06497496      -0.00058027      -0.00269539       0.00674434      -3.80816663
H        4.90183645      10.80221144      15.64844581       0.00213954       0.00053857       0.00608046      -3.71331455
N        3.20653967       8.86325216      15.74410288       0.00052226       0.00144725      -0.00234743      -8.66403596
H        3.87010307       8.70338515      14.98652082       0.00209785       0.00294012      -0.00158362      -3.66822403
H       15.66516662      21.34754940       9.36586694       0.00025318       0.00121550      -0.00521696      -3.84765229
Pb       0.09980512      12.91932493       6.41957919       0.00000340       0.00090017      -0.00030467      -4.63666654
I        3.34244766      13.33447091       6.61011378      -0.00053100       0.00100567      -0.00233144      -1.96606390
I        0.17168941      16.22013325       6.61087609      -0.00426749       0.00075364       0.00128555      -2.01835706
I        0.20045743      12.81835605       9.68679619       0.00245231       0.00041859      -0.00044664      -1.98289342
Pb       0.15177183      13.07973486      12.92193009      -0.00000296       0.00000926      -0.00100654      -4.64543764
I        3.44521357      12.86579282      12.83026131      -0.00034535      -0.00216710       0.00215291      -1.96405816
I        0.44089746      16.23555809      12.67381442       0.00278066      -0.00026436      -0.00330148      -1.97011340
I        0.45493747      13.33045108      16.23959003       0.00185957       0.00342670      -0.00075316      -2.00777685
C        3.63539754      16.40425446      16.19773321       0.00584678      -0.00032629       0.00360604      -8.90171020
H        4.41919978      17.12968071      15.95831719       0.01200889      -0.00399083       0.01342402      -3.46017174
N        2.68208571      16.76822256      17.02955365       0.00459904      -0.00086022       0.00215263      -8.65520748
H        2.66928074      17.70116870      17.43714473       0.00912400      -0.00427387       0.01036942      -3.83902882
H        1.95887636      16.11750657      17.33664434      -0.00193471       0.00188473      -0.00783384      -3.67576780
N        3.69451490      15.20768918      15.65200704       0.00017471       0.00424188      -0.00663543      -8.66509371
H        2.92646279      14.53917306      15.75655386      -0.00290556       0.00702988      -0.01263693      -3.73172548
H        4.44268869      14.96511175      15.00845229       0.00110140       0.00498063      -0.00586574      -3.79242090
Pb       0.25333858      13.04562173      19.49327490       0.00094679      -0.00030405      -0.00076898      -4.66629379
I        3.54103575      12.91412657      19.44572898       0.00090054      -0.00552046       0.00690519      -2.02265435
I       13.07682479       9.92068200       6.63563148       0.00277306      -0.00010690      -0.00008612      -1.99972151
I        0.13297835      12.83963605      22.73286260      -0.00577526      -0.00123734      -0.00083962      -1.97922594
C        3.82678720      16.17185269      22.64024915       0.00183589      -0.00160325       0.00013480      -8.90068206
H        4.70496341      16.27265954      21.99441099       0.00337383      -0.00644598       0.00164466      -3.47893715
N        3.16805425      15.03172178      22.61540582      -0.00194560       0.00038603       0.00226319      -8.70802479
H        3.45548313      14.27758928      21.99518950      -0.00347559      -0.00205291       0.00463123      -3.80253355
H        2.31338556      14.89372703      23.15323784      -0.00248031       0.00460995       0.00228102      -3.66987994
N       16.43760335      10.84177254      10.37242851       0.00364588       0.00182767      -0.00379813      -8.65265874
H       15.67719152      10.76421212      11.05358771       0.00259898       0.00615830      -0.00462509      -3.73968494
H       17.00628165      11.68582560      10.39559429       0.00650308       0.00003552      -0.00544429      -3.79303365
Pb       6.56753531       6.57547043      -0.02558691       0.00026891       0.00087508      -0.00046312      -4.66110895
I       -3.08053703      13.11789112      13.00120113      -0.00021074       0.00037052      -0.00128903      -1.88383651
I        6.53165323       9.83213369      -0.07983850       0.00248366      -0.00013006      -0.00014864      -1.97624641
I        6.72909134       6.57395139       3.23471412      -0.00471232       0.00140904      -0.00016552      -2.02266791
C       10.00151694       9.62732572       3.52111826      -0.00086697      -0.00493859       0.00410325      -8.92524678
H        9.99351523       8.84583892       4.28766654       0.00290915      -0.00744524       0.00215203      -3.44784967
N        9.01432531       9.66149102       2.65199506      -0.00546052      -0.00544487       0.00826608      -8.67815509
H        8.27674884       8.95961392       2.67100321      -0.00370321      -0.00578369       0.01000676      -3.81036317
H        8.99354308      10.34907868       1.89699860      -0.00832876      -0.00416666       0.00897495      -3.70511409
N       11.00060154      10.48531768       3.51403839      -0.00309292      -0.00447816       0.00269033      -8.66704734
H       11.03594807      11.25986890       2.85036678      -0.00649085      -0.00215476       0.00369148      -3.69017998
H       11.72319751      10.44150730       4.23187161      -0.00050132      -0.00381546      -0.00021856      -3.82851031
Pb       6.71983044       6.47605794       6.53926158       0.00061867       0.00196212      -0.00001866      -4.66794527
I        9.98123505       6.33194372       6.39736844       0.00040824       0.00430701      -0.00847183      -2.01446888
I        6.62083750       9.73366635       6.64383494      -0.00110434       0.00096059      -0.00158380      -1.92776884
I        6.85247815       6.60668297       9.77256516       0.00228270       0.00178254      -0.00035436      -1.98946779
C        9.91380757      10.24094227       9.89609395       0.00011503       0.00501614      -0.00048312      -8.90624088
H       10.17636595      11.28538510       9.70967300      -0.00168485       0.00564342      -0.00049181      -3.44926750
N       10.88058723       9.40366894      10.21512894       0.00294303       0.00719426      -0.00111259      -8.73781027
H       11.83921986       9.72399670      10.30278398       0.00167769       0.00945497      -0.00170391      -3.74955492
H       10.68334594       8.45542454      10.53349983       0.00499244       0.00643762      -0.00174805      -3.69378210
N        8.65278709       9.87722274       9.79419182       0.00163873       0.00269050       0.00034342      -8.65104973
H        8.35832201       8.89706195       9.84787765       0.00303259       0.00201814       0.00121220      -3.73979048
H        7.94250022      10.56168891       9.53743092      -0.00024347       0.00113227       0.00054974      -3.82488923
Pb       6.66412127       6.38298885      13.06124055       0.00112976       0.00078591      -0.00000729      -4.65421223
I        9.89011163       6.80318643      12.93839822      -0.00002191       0.00828181      -0.00029090      -1.98643377
I        6.54039493       9.74381640      13.54160430      -0.00243225       0.00026290       0.00169713      -2.09199922
I       19.86318290      19.47268428       9.81006865      -0.00020604      -0.00370559      -0.00008082      -1.97573123
C       10.08550011       9.84469605      16.35956403       0.00203771       0.00029064       0.00070593      -8.88402146
H       -2.29674095       3.27947300       4.14557569      -0.00153190       0.00298519       0.00342314      -3.47130974
N       10.52179253       9.69026254      15.12383922       0.00719190       0.00786836       0.00164541      -8.77596277
H       11.51313934       9.66226092      14.90575487       0.00818397       0.01595438       0.00526380      -3.75103567
H        9.87572150       9.50887967      14.35828648       0.01148853       0.00514219      -0.00115696      -3.63982374
N        8.80232602       9.88077376      16.65895850       0.00078371      -0.01060515      -0.00334274      -8.65653887
H        8.09384750       9.84588077      15.92318280       0.00331619      -0.01399189      -0.00559822      -3.70998547
H        8.47613910       9.97341164      17.62246081      -0.00223062      -0.01429737      -0.00404577      -3.83438201
Pb       6.62560999      13.07420114       0.07367279       0.00099406      -0.00229057       0.00117963      -4.66218269
I        9.89620035      12.75726296       0.44822499      -0.00103403      -0.00554818       0.00382075      -2.02590899
I        7.16965035      16.29695008       0.43382787       0.00642681      -0.00075733       0.00159608      -2.03795945
I        6.18446780      12.67217264       3.25390909      -0.00163636      -0.00259615      -0.00010033      -1.99396488
C       10.13293990      16.33023375       3.66201019      -0.00125368      -0.00058765       0.00225979      -8.90989723
H       10.46295246      16.54908363       4.68126927       0.00542126      -0.00395950       0.00023424      -3.47365044
N       10.31159844      17.25275532       2.73974492      -0.00560139       0.00456487       0.00348134      -8.74641798
H       -2.37681156       4.93053237       9.45342481      -0.00446562       0.00229409       0.00455614      -3.77619346
H        9.91427521      17.15765561       1.80636308      -0.01040075       0.00679153       0.00618459      -3.65806849
N        9.57010119      15.16325437       3.42515298      -0.00305062       0.00223145       0.00068937      -8.67813919
H        9.34202866      14.86243714       2.47665700      -0.01161297       0.00653858       0.00129857      -3.69392608
H        9.49611591      14.47217749       4.17259035       0.00001485      -0.00098793      -0.00132540      -3.81907425
Pb       6.52303170      13.03057150       6.47006004      -0.00041627       0.00036694      -0.00055720      -4.63574704
I        9.84878705      13.06082563       6.53262576       0.00028586      -0.00082334      -0.00129241      -2.00082250
I        6.77265894      16.27011845       6.60014706      -0.00022253       0.00066339      -0.00279399      -1.93334609
I        6.52334457      12.99447137       9.73930837      -0.00213558       0.00068480      -0.00046855      -2.05831839
C        9.92955292      16.21575499       9.39780887      -0.00098448      -0.00199872      -0.00204665      -8.91675923
H       10.09827481      15.61886171       8.49578269      -0.00297256      -0.00275938      -0.00198120      -3.45627699
N        8.96154550      15.85017029      10.21174108      -0.00104457       0.00079387      -0.00133321      -8.66572375
H        8.37033968      15.04484407      10.00793795      -0.00303044       0.00186429      -0.00029439      -3.84075914
H        8.74325512      16.37521379      11.05761690       0.00102346       0.00154400      -0.00115181      -3.66091318
N       10.69893595      17.25907767       9.61619625       0.00186481      -0.00367446      -0.00311763      -8.63784342
H       10.57391501      17.85356830      10.44135967       0.00318408      -0.00254292      -0.00378190      -3.75265954
H       11.45366958      17.49061542       8.97475988       0.00158927      -0.00566063      -0.00400602      -3.79536094
Pb       6.75198120      13.00570578      13.02784207      -0.00024410      -0.00000506       0.00021832      -4.62372680
I        9.95978324      12.89954043      12.85512268      -0.00018630       0.00034736       0.00031919      -1.92019168
I        6.37015191      16.20532186      12.82056221      -0.00076641       0.00045155      -0.00133872      -2.02721747
I        7.09851263      13.49183477      16.21966052      -0.00162114       0.00129243      -0.00042220      -1.99445525
C       10.26187032      16.60957109      16.19657995       0.00113542       0.00020345       0.00002078      -8.90844250
H       10.96851801      17.44523744      16.16446047       0.00337354      -0.00183257      -0.00009360      -3.47136375
N        9.54398568      16.44390740      17.28620472       0.00008988       0.00282063      -0.00000748      -8.68480106
H        9.63042285      17.09063304      18.06953705       0.00170446       0.00298068      -0.00034056      -3.81461879
H        8.84641073      15.70217034      17.35788068      -0.00204767       0.00506621       0.00005673      -3.69523599
N       10.17661922      15.82625784      15.14214055      -0.00079369      -0.00022471       0.00058391      -8.69036351
H        9.55636904      15.01584089      15.12494294      -0.00278124       0.00138561       0.00094086      -3.68445181
H       10.78588651      15.97138034      14.33915423      -0.00017562      -0.00218786       0.00055735      -3.81019263
Pb       6.80552854      13.09489202      19.54688365       0.00115541       0.00001479       0.00001223      -4.65323184
I       -3.07488565       6.56093131       6.43941904       0.00036459       0.00162266      -0.00311884      -1.98124632
I        6.62369037      16.29001999      19.68086385      -0.00159645       0.00038067      -0.00412413      -1.99257963
I       -6.51141904       6.37065029       9.71967665       0.00610966       0.00662796       0.00003511      -1.93300891
C       -3.44233015       9.65876566       9.60362727      -0.00411597      -0.00122376       0.00096185      -8.90471340
H       -4.34698640       9.56772243       8.99541658      -0.00371393       0.00019923       0.00086552      -3.46316601
N       -2.32721721       9.12879001       9.14345113      -0.00331907      -0.00041506      -0.00053384      -8.70529938
H       -2.32308351       8.59796734       8.27435845      -0.00387440       0.00195547      -0.00188621      -3.83071716
H       -1.47795012       9.11453849       9.70522937      -0.00398070      -0.00184555      -0.00074364      -3.64362347
N       -3.51185021      10.31008529      10.74429007      -0.00317199      -0.00429638       0.00251048      -8.67405937
H       -2.69478249      10.44173531      11.34254823      -0.00332034      -0.00551769       0.00244493      -3.71337886
H       -4.39982776      10.65747795      11.09691629      -0.00364462      -0.00561028       0.00393923      -3.80272344
Pb       6.66032667      19.46503005      12.97369700      -0.00051039       0.00032931       0.00038442      -4.64003948
I        9.94287402      19.26514106      12.70224745      -0.00042910       0.00072010      -0.00395067      -2.04112633
I       19.64296539      16.36849258       0.14272124       0.00502266       0.00073579      -0.00164010      -1.94705116
I        6.78716881      19.22121787      16.21305831       0.00429460       0.00226481      -0.00006215      -1.96516873
C        9.89044878      22.66737726      16.07917406      -0.00306051      -0.00146675      -0.00260029      -8.89707461
H        9.33561322      21.93601239      16.67304212      -0.00921028      -0.00202936      -0.00894522      -3.44568461
N       10.23220830      23.80561963      16.64709734      -0.00056251      -0.00643937       0.00528846      -8.72024245
H       22.89617034      17.68749284       4.57388398      -0.00558186      -0.01031306       0.00452842      -3.77472715
H       -2.39103883      11.31771642      22.66982584       0.00885712      -0.00792428       0.01380697      -3.69142655
N       10.19246684      22.37467903      14.82922651       0.00083737       0.00334477      -0.00258635      -8.68791017
H       10.64716313      23.05669999      14.22193097       0.00510922       0.00457396       0.00181205      -3.70566490
H        9.94896092      21.47660350      14.41304031      -0.00151260       0.00642242      -0.00767053      -3.81361400
Pb       6.75174341      19.56661630      19.45361546       0.00160117       0.00039745       0.00024158      -4.65737234
I        9.96151456      19.39841853      19.69791316       0.00021478      -0.00070041       0.00440484      -1.97575912
I       20.16357798      16.43633916       6.15484962       0.00580077       0.00114612      -0.00079642      -1.94395728
I       -6.62372565      12.83976751       9.71057826       0.00121036       0.00053096      -0.00058440      -2.00476652
C       10.01978298       9.83837832      -3.33474101       0.00228596       0.00140230      -0.00264843      -8.90133239
H       -2.11024526      15.66054545       9.20140241       0.00599101       0.00241018       0.00273501      -3.44579271
N       10.16015505      11.12147061      -3.06638276      -0.00180782       0.00197271      -0.00357076      -8.65203089
H       11.03873757      11.61269066      -3.24248535      -0.00185291       0.00338545       0.00007315      -3.84260458
H        9.36769168      11.67755348      -2.74112464      -0.00548410       0.00119810      -0.01084995      -3.69847851
N        8.91978969       9.16655271      -3.05394202       0.00220317      -0.00060741      -0.00780927      -8.73159499
H        8.18130370       9.57421612      -2.47785840      -0.00165181      -0.00114505      -0.01266176      -3.70943595
H       -4.13071172      14.53338791       9.73762451       0.00524518      -0.00089381      -0.00767620      -3.73714746
Pb      13.19112173      13.12418163       0.03901141      -0.00233333      -0.00083690       0.00057977      -4.62983757
I        3.43677595      19.36581868      12.79240619      -0.00099751       0.00433137       0.00474492      -1.96223868
I       -0.15264256       3.19729790       6.40686305      -0.00343831      -0.00053848       0.00217175      -1.98873979
I       13.36358116      13.36554000       3.22681447      -0.00429426      -0.00457703       0.00037049      -1.94581005
C       16.45182350      16.59237958       3.04455018      -0.00075910       0.00239971      -0.00530456      -8.91394952
H       16.78167717      17.48261081       2.49980895      -0.00785734       0.00152834      -0.01024594      -3.44139060
N       17.18546407      15.50198248       2.96334917       0.00944225       0.00857940       0.00357339      -8.70116212
H       18.01206685      15.47419110       2.36978167       0.01015806       0.01238692       0.00416269      -3.80546395
H       16.98139481      14.67862672       3.52911936       0.01505179       0.01022301       0.00730089      -3.67878533
N       15.34667188      16.66820107       3.75622915      -0.00322527      -0.00368054      -0.00803658      -8.62592702
H       14.93215870      15.84488287       4.19300150       0.00331286      -0.00424378      -0.00378637      -3.69640083
H       14.79586688      17.52866248       3.76680327      -0.00935047      -0.00757107      -0.01267352      -3.86334477
Pb      13.05799084      13.22490555       6.56485568      -0.00005063      -0.00113313      -0.00165830      -4.65404715
I       16.39901644      13.42172444       6.23292853       0.00102495       0.00217694      -0.00452332      -2.05664211
I       12.94922830      16.45408958       6.62810283       0.00274275      -0.00041809      -0.00122364      -1.99662040
I       13.17895828      13.14832022       9.72420210      -0.00047223      -0.00430677      -0.00029632      -1.92557974
C       16.55740849      16.17421998       9.70230815       0.00142617      -0.00327679      -0.00143468      -8.91840657
H       16.45859429      15.14587237      10.06020212       0.00025119      -0.00420592      -0.00438233      -3.45109556
N       16.77338696      17.12003422      10.59583483       0.00087642      -0.00603766       0.00134986      -8.76735307
H       16.91908970      16.88835835      11.57250093      -0.00084467      -0.00908414       0.00095723      -3.75568087
H       16.98295277      18.07678871      10.32078264       0.00223230      -0.00537658       0.00446874      -3.63946443
N       16.43924148      16.41196370       8.41419375       0.00342966       0.00009800      -0.00104475      -8.60520240
H       16.47397880      17.36071721       8.02253449       0.00365240       0.00108359       0.00136913      -3.76424664
H       16.29346740      15.64238511       7.75876936       0.00328596       0.00188188      -0.00299869      -3.84715291
Pb      13.25607080      13.12689816      12.94600828       0.00071696       0.00033139      -0.00135637      -4.66415408
I        3.35453679       6.85511149       0.00210153      -0.00012706       0.00429064      -0.00472084      -1.93329830
I       13.22522165      16.40489185      12.92927012      -0.00170833      -0.00019274      -0.00029473      -2.02238160
I        0.24331091       6.23128703       3.18690808       0.00278985      -0.00050352      -0.00027637      -1.97511128
C        3.11501587       9.51677287       3.18881597      -0.00395774      -0.00296183       0.00123767      -8.91392265
H        2.36305067       8.72314794       3.24703107      -0.00358516      -0.00339496      -0.00153506      -3.45217614
N        3.05722955      10.35494775       2.17549566      -0.00191076      -0.00155445       0.00238918      -8.66726722
H       15.45005261      16.92458196      14.48091877      -0.00050491      -0.00070150       0.00079881      -3.84241234
H        3.71431468      11.13031882       2.08154510      -0.00204697      -0.00119283       0.00490557      -3.68830055
N        4.02661862       9.58541365       4.13430146      -0.00604402      -0.00384990       0.00362729      -8.66100910
H        4.77175455      10.28450913       4.10716833      -0.00567593      -0.00439826       0.00572503      -3.71722384
H        4.03839922       8.91573250       4.90110555      -0.00769169      -0.00480928       0.00271945      -3.81764133
Pb      13.27786779      19.68944302      12.94416613      -0.00025766       0.00008430      -0.00097472      -4.64190101
I       16.50554268      19.99685835      12.93812156      -0.00007990      -0.00252569      -0.00006817      -1.95773145
I       13.36886537      22.94192272      12.85625027      -0.00021843      -0.00007747      -0.00040729      -2.00637971
I       13.00405921      19.71439899      16.18306292      -0.00114664       0.00045558      -0.00038519      -1.94223872
C        3.39232750      16.34512378       2.94385318      -0.00043986       0.00033594      -0.00771253      -8.92465031
H       16.84192677      23.03741906      14.92140488      -0.00720159      -0.00257544      -0.00589328      -3.44431796
N       15.24186370      22.75043444      16.21179308       0.00077582      -0.00130867       0.00426420      -8.70739246
H       14.58366834      22.60643954      15.44798265      -0.00262926      -0.00566335       0.00595940      -3.80641619
H       14.86570642      22.74000972      17.16170122       0.00675116       0.00021376       0.00249035      -3.69160652
N        4.28372288      16.56570359       3.89004686       0.00296140       0.00541374      -0.00854013      -8.75001878
H        4.02972303      16.59567471       4.87582902       0.00946629       0.00986411      -0.01253126      -3.65981327
H        5.24021573      16.81724330       3.66317384       0.00179639       0.00624610      -0.01765151      -3.75283826
Cs       3.37038281      16.15573273       9.73843745       0.00051371       0.00230581      -0.00228012      -3.68337700
