233
Lattice="-12.957396986651146 6.351727325886291 13.017959588757243 13.11604327292129 6.668741413988977 13.017959588757243 13.195366416056363 13.17897578392661 -6.508979794378622" Properties=species:S:1:pos:R:3:forces:R:3:energies:R:1 energy=-1066.061822933141 stress="0.0001910966729466773 0.00018067751071102717 -0.00015117313726591808 0.00018067751071102717 0.00014320663045406 -4.124703777128118e-06 -0.00015117313726591808 -4.124703777128118e-06 -0.0001353410690892606" free_energy=-1066.061822933141 pbc="T T T"
Pb      -6.35049117       6.31686758      12.89153982      -0.00061594       0.00026703      -0.00039218      -4.63285929
I       -3.16430997       6.52274274      12.15005093       0.00089119       0.00082235      -0.00121474      -2.00026922
I       -6.13503319       9.56954285      13.18363103      -0.00008309      -0.00049855      -0.00126472      -2.00866022
I        6.98682593      19.00453382       9.68463924       0.00083425      -0.00020870      -0.00053353      -2.03741814
C       -3.15553768       9.91431377      15.98825094       0.00159714       0.00016495      -0.00460607      -8.89699808
H       -3.59252701      10.77537306      15.47298331       0.00467856      -0.00277790      -0.01217542      -3.46861888
N       -3.90335669       8.84480736      16.16409109       0.00037287       0.00143996      -0.00212167      -8.72650600
H       -4.84160312       8.79882022      15.77847310       0.00219629      -0.00023818      -0.00639787      -3.75733270
H        9.59124371      21.25909677      10.26215089      -0.00210314       0.00390235       0.00230632      -3.68848179
N       -1.91034375      10.00393633      16.40422186      -0.00062141       0.00255394       0.00148166      -8.63728292
H       -1.40380072       9.18329058      16.74189054      -0.00238841       0.00483393       0.00940882      -3.72774410
H       -1.36523387      10.85617254      16.27132803       0.00019694       0.00167526      -0.00087737      -3.83685378
Pb       0.24778463      19.49712122       6.56201635      -0.00050769      -0.00097004      -0.00018264      -4.63451448
I        3.58240163      19.43328356       6.72279355       0.00036343       0.00276026       0.00135794      -2.05044794
I       13.56180405       9.91535450      13.21703639      -0.00357197      -0.00079940       0.00064908      -1.98720516
I       13.16830221      13.22160256      -3.29139187      -0.00221601       0.00058422      -0.00022531      -1.91808754
C        3.25215639       3.41835152       3.47274860      -0.00062822       0.00242167      -0.00052030      -8.90217012
H        3.86102133       3.68543626       4.34174988      -0.00063203       0.00429953      -0.00121087      -3.45306477
N        3.84875216       3.27040111       2.30563176      -0.00118253       0.00363733      -0.00116156      -8.69750676
H       -8.11787377       9.80858809      15.19002825      -0.00181982       0.00619973      -0.00179399      -3.80156430
H        3.31503774       2.97261617       1.49000708      -0.00112617       0.00232116      -0.00059878      -3.65769474
N        1.95669527       3.24985015       3.62748781      -0.00004449      -0.00108814       0.00058646      -8.60074482
H        1.35534337       3.05394446       2.82283000      -0.00029528      -0.00286141       0.00129270      -3.72982151
H        1.50446835       3.32147433       4.54264283       0.00051273      -0.00125634       0.00086623      -3.87108683
Pb       0.08185774       6.61985436       6.42114053       0.00009749      -0.00076677       0.00090200      -4.65882909
I        3.36081718       6.54683910       6.31160638      -0.00023653      -0.00082349      -0.00236502      -1.98665951
I        0.16940156       9.82868320       6.35119951      -0.00143915      -0.00030152       0.00110194      -1.94005328
I        0.30854195       6.41444230       9.69092074       0.00589297       0.00244650       0.00094482      -2.03626559
C        3.44085490       9.53980760       9.38871805       0.00014678      -0.00147444       0.00235525      -8.91773785
H        3.53844978       8.83535480       8.55602558      -0.00269819      -0.00553829       0.00542791      -3.45050621
N        4.28934679      10.54051307       9.46558295       0.00462528      -0.00494921      -0.00184585      -8.62720695
H        5.01846163      10.64906023       8.76263766       0.00506304      -0.01128607      -0.00253235      -3.81561529
H        4.22291904      11.24392827      10.20694635       0.00778056      -0.00166963      -0.00478177      -3.73380097
N        2.47892515       9.33712716      10.26331754      -0.00107562       0.00678391       0.00287228      -8.63794270
H        2.35055034       9.94798235      11.06992074       0.00211275       0.01058217       0.00055449      -3.66945888
H        1.85307789       8.53458402      10.17369505      -0.00398789       0.00867130       0.00625239      -3.87609132
Pb      -0.01553022       6.54396151      12.97299860       0.00135211       0.00041478       0.00055581      -4.65058774
I        3.30783662       6.78433808      13.23111600       0.00076188       0.00276244       0.00239602      -2.01189316
I       -0.06071857       9.74672744      12.98005695      -0.00232069       0.00000043       0.00149352      -1.93659914
I       12.77486944      19.70193079       9.65592961       0.00125673      -0.00074871      -0.00005549      -1.96583757
C        3.58693387      10.06047429      16.37429250       0.00113789       0.00079327       0.00090624      -8.90388020
H        3.42961346      10.98862322      16.93141220       0.00288088       0.00044412       0.00199462      -3.46773126
N        4.73614966       9.43359208      16.52510634      -0.00022058      -0.00188048       0.00089989      -8.71604591
H        5.46708891       9.82006368      17.11816204      -0.00004863      -0.00445651       0.00232406      -3.79296386
H        4.91729044       8.52548792      16.09766286      -0.00190394      -0.00151862      -0.00051684      -3.68131800
N        2.61806250       9.62023788      15.60086062       0.00081516       0.00396828      -0.00030144      -8.67555339
H        2.75131659       8.81921220      14.97452064      -0.00064776       0.00416082      -0.00090674      -3.75357845
H        1.75709594      10.15106167      15.50052061       0.00183522       0.00581517       0.00003894      -3.76361430
Pb       0.05813527      13.10545924       6.45206324       0.00013714       0.00013135      -0.00043666      -4.64459342
I        3.38051781      13.33578585       6.44539826       0.00007400      -0.00007347      -0.00121096      -2.02260814
I        0.27242663      16.31066480       6.87644586       0.00279699      -0.00053246       0.00099375      -1.96368739
I        0.01050239      12.84532759       9.66363262       0.00108670       0.00101802      -0.00059235      -2.01174234
Pb       0.20870148      12.98965064      12.89584722      -0.00021874      -0.00051575      -0.00067383      -4.64425116
I        3.48289860      12.62682207      12.51953412      -0.00019961      -0.00319713      -0.00168518      -2.02383389
I        0.60059398      16.21801548      12.67484325       0.00060169      -0.00013148      -0.00177619      -2.04265580
I        0.40169456      12.96597319      16.15325365       0.00004394       0.00182003      -0.00057504      -2.02788282
C        3.49374626      16.28370962      16.47943239       0.00117302       0.00049478      -0.00057006      -8.89407584
H        3.04655879      15.97644826      17.42879400       0.00037616       0.00094444      -0.00078169      -3.45561338
N        4.46775024      15.55470453      15.97437807       0.00079536      -0.00034143      -0.00000535      -8.63521456
H        4.83760182      14.74606808      16.46990561      -0.00006705      -0.00057339       0.00029574      -3.79054255
H        4.99203165      15.85551803      15.14548467       0.00159798      -0.00069702       0.00034569      -3.76074102
N        3.02094451      17.36084418      15.88787800       0.00237358       0.00085843      -0.00089454      -8.63982284
H        3.36837067      17.67698170      14.98022700       0.00305834       0.00042974      -0.00077503      -3.70699251
H        2.25019588      17.89688392      16.28820429       0.00234547       0.00130810      -0.00150607      -3.84026493
Pb       0.22483413      12.97959816      19.42919606      -0.00015010      -0.00051780      -0.00012422      -4.66334357
I        3.46154880      12.94892060      19.37614873       0.00005406       0.00161622      -0.00126508      -2.00944027
I       13.19313441       9.88843448       6.13865233      -0.00067185      -0.00071323       0.00047095      -1.97813769
I        0.46727709      13.12462332      22.73077947      -0.00117625      -0.00320500      -0.00018262      -2.03234950
C        3.56556448      16.74387301      22.73910856      -0.00481441       0.00162435      -0.00276088      -8.93841430
H       16.56068777      11.48326059       9.68693119      -0.01264097       0.00338193      -0.00153748      -3.45410264
N        3.13928392      16.09886550      21.67431497       0.00496509       0.00123130      -0.00133796      -8.75061834
H        2.86604415      16.60664245      20.83644553       0.00260418      -0.00264897      -0.00396281      -3.78752512
H        3.04854450      15.08450039      21.65549739       0.01355490      -0.00330055      -0.00336861      -3.65271591
N       -9.17558383       9.47315902      10.83217299      -0.00261075       0.00569906       0.00152298      -8.75149312
H       -9.10093615       8.45891929      10.89374392       0.00514368       0.00609285       0.00013339      -3.66581288
H       -8.84627703      10.01508628      11.62584011      -0.01179072       0.00877872       0.00069095      -3.76353793
Pb       6.72713110       6.46760678      -0.03902147      -0.00042873      -0.00069442      -0.00102792      -4.65101580
I       -3.02522931      13.13381738      13.15238778      -0.00027012      -0.00082704      -0.00189736      -1.92615842
I        6.43364634       9.69872148       0.20814294      -0.00438279      -0.00079383       0.00240528      -1.97353651
I        6.63473685       6.11948049       3.21825789      -0.00100142      -0.00163773      -0.00063553      -2.00505755
C        9.88579889       9.50205291       3.28238260      -0.00176083      -0.00468055       0.00343938      -8.89593930
H       10.55556138       8.66176571       3.07873128      -0.00375474      -0.00771362       0.00944015      -3.44606481
N        8.58684375       9.32473580       3.16562672      -0.00214044      -0.00193614       0.00355194      -8.66767759
H        8.19078005       8.41170237       2.94284039      -0.00438168      -0.00240675       0.00907072      -3.83400838
H        7.93745944      10.11081268       3.24150006      -0.00033473      -0.00007327       0.00021792      -3.71991432
N       10.41499817      10.66516375       3.61464217       0.00115540      -0.00386660      -0.00398018      -8.70038803
H        9.82690764      11.42574048       3.95420560       0.00267287      -0.00016127      -0.00980688      -3.67684209
H       11.41501919      10.76993133       3.75811656       0.00125243      -0.00588364      -0.00296263      -3.78050652
Pb       6.59882845       6.48214480       6.51981353      -0.00010882      -0.00069448      -0.00033960      -4.66299258
I        9.88484506       6.53801272       6.48785026      -0.00031628       0.00035807      -0.00141983      -2.00513335
I        6.53484130       9.79592150       6.55115887       0.00270902      -0.00063659      -0.00027809      -2.00753303
I        6.58641875       6.67620275       9.73128208      -0.00220028       0.00156168      -0.00036345      -1.90560732
C        9.94204068       9.48683170       9.52169491       0.00179036      -0.00066338      -0.00132098      -8.91281472
H        9.97575411       8.64607027       8.82145673       0.00075169       0.00023579      -0.00244223      -3.46051553
N       10.93124267       9.62846257      10.37914043       0.00275473      -0.00210916      -0.00223929      -8.68789939
H       11.71145945       8.97310109      10.38403741       0.00249062      -0.00254408      -0.00389421      -3.80239791
H       10.91955508      10.37117443      11.08093183       0.00433253      -0.00265402      -0.00174984      -3.69972175
N        8.91216246      10.30486463       9.45995721       0.00196261      -0.00024989       0.00087184      -8.68239667
H        8.83682879      11.11649886      10.07366472       0.00267308      -0.00125326       0.00226404      -3.67406647
H        8.18426766      10.17342342       8.75693455       0.00126108       0.00080901       0.00142727      -3.82866636
Pb       6.66140239       6.50546476      12.90226152       0.00005156      -0.00086735      -0.00063837      -4.66228246
I        9.88292609       6.45080098      12.98461910       0.00001615      -0.00490795      -0.00182536      -1.89122209
I        6.98822091       9.68495562      13.14119757       0.00277026      -0.00075311       0.00203846      -1.94878921
I       19.73208336      19.26542276       9.73705629      -0.00177467      -0.00368247      -0.00023133      -2.07409403
C       10.12019405       9.77684219      16.57215363       0.00004408      -0.00115162      -0.00010870      -8.90744843
H       -2.46601572       3.05553187       4.50919587       0.00419283      -0.00427054      -0.00257792      -3.45950883
N        9.22754769       8.84775531      16.29829419      -0.00176939       0.00023529       0.00107253      -8.71265415
H       22.25314959      21.26500942      10.44159053       0.00041361      -0.00136932      -0.00023014      -3.78742460
H        8.69942311       8.85965895      15.42375219      -0.00593542       0.00359666       0.00356942      -3.69956023
N       10.40909981      10.76598425      15.75285667      -0.00284742       0.00108456       0.00156349      -8.65872526
H        9.93155777      10.88646795      14.85867848      -0.00560147       0.00305123       0.00330030      -3.68029423
H       11.12186935      11.45923307      15.98601274      -0.00152768       0.00004413       0.00062327      -3.85184630
Pb       6.56697719      12.92755961       0.01755021       0.00088461      -0.00019219      -0.00002126      -4.65000881
I        9.88852395      13.05495196      -0.12960173       0.00034254      -0.00170275      -0.00061743      -2.02313635
I        6.94397894      16.21908634       0.21657100       0.00064774      -0.00054588       0.00180585      -1.99545839
I        6.75407792      12.69683711       3.22456863       0.00073461      -0.00118277      -0.00045229      -1.98492593
C       10.04397249      16.32429038       3.45657625      -0.00199921       0.00094690       0.00310670      -8.91356788
H       10.59928708      16.59085134       4.36021965      -0.00554763      -0.00307805       0.00645425      -3.46921652
N        9.76087168      17.27571804       2.59335218       0.00120602       0.00470797       0.00638067      -8.72691857
H       -3.15723636       5.05669502       9.27799401      -0.00058521       0.00419556       0.01270484      -3.73769995
H        9.19794135      17.09024081       1.76045893       0.00627907       0.00827555       0.00233127      -3.71598243
N        9.70464425      15.06351426       3.28556954      -0.00096049       0.00153037      -0.00400203      -8.68912324
H        9.23805470      14.73718743       2.44010562       0.00109991       0.00555438      -0.00663906      -3.67656441
H        9.89548056      14.37616065       4.01345365      -0.00322573      -0.00150726      -0.00629933      -3.82456607
Pb       6.63740848      13.10596490       6.45826211       0.00007007      -0.00066811      -0.00030184      -4.64304547
I        9.90144893      13.05622765       6.48195437      -0.00010796       0.00000892      -0.00477473      -1.98486799
I        6.81239506      16.29423157       6.27129870      -0.00011539      -0.00029565       0.00034937      -1.94845402
I        6.65860185      13.39801648       9.71337244       0.00025785      -0.00169498      -0.00015242      -2.00324505
C       10.43901024      16.32805907       9.73464683       0.00120642      -0.00025981      -0.00088720      -8.94918879
H       11.49566563      16.04629520       9.71909717       0.00107422      -0.00080005       0.00024171      -3.45092954
N        9.79767775      16.40551056       8.58781324       0.00259179       0.00049047      -0.00160975      -8.73668990
H       10.27407286      16.18644328       7.71763021       0.00371713       0.00098466      -0.00113214      -3.76670651
H        8.81327856      16.66786843       8.53446028       0.00263371       0.00045034      -0.00264030      -3.68102644
N        9.87762506      16.56423010      10.90112025      -0.00004892      -0.00050412      -0.00143020      -8.71909369
H        8.89946751      16.84167798      10.98315644       0.00018647       0.00064980      -0.00258290      -3.68023318
H       10.44322906      16.53133180      11.74810376      -0.00105122      -0.00116674      -0.00081103      -3.78027157
Pb       6.74354103      12.92117421      12.95544081      -0.00033742      -0.00055935       0.00024417      -4.61072615
I        9.97299118      12.69123834      12.57265440      -0.00060245       0.00052091       0.00043891      -2.01469025
I        6.65919205      16.21808804      13.04691611      -0.00065630      -0.00077476      -0.00115755      -2.03619016
I        6.80393968      12.68091995      16.24601332       0.00033203      -0.00007553       0.00043121      -1.97827180
C       10.23416528      16.46663661      16.30914767       0.00299601       0.00087763       0.00073373      -8.89263471
H       11.21083085      15.97481426      16.31194463       0.00452355       0.00387123      -0.00008462      -3.46646130
N       10.16621651      17.74668942      16.00702130      -0.00120862       0.00053842       0.00035932      -8.69378958
H       11.00766601      18.29767437      15.84481182      -0.00289766       0.00289947      -0.00042278      -3.80685754
H        9.27145467      18.24077317      15.98873663      -0.00273126      -0.00196654       0.00154071      -3.71923924
N        9.16819682      15.73644558      16.57725443       0.00556713      -0.00244710       0.00190519      -8.74458179
H        8.25553401      16.16876449      16.71193146       0.00443551      -0.00520063       0.00331911      -3.64830173
H        9.25428486      14.76718528      16.86827514       0.00910369      -0.00193420       0.00256039      -3.76109477
Pb       6.70151747      13.01321276      19.51836366       0.00031821      -0.00062031      -0.00008330      -4.66932683
I       -3.15517747       6.62017392       6.50427238       0.00007281      -0.00309241       0.00194164      -1.95508852
I        6.59598751      16.22729588      19.29339269       0.00310563      -0.00022429      -0.00021799      -1.92460209
I       -6.85364985       6.56224095       9.73252787      -0.00375232       0.00251459       0.00017985      -1.97167741
C       -3.18400623      10.09181771       9.55285018      -0.00016312      -0.00005155      -0.00384546      -8.95741678
H       -3.23198925      11.14379620       9.25840957      -0.00108370      -0.00141463      -0.00854621      -3.44482883
N       -4.31063076       9.42121001       9.66406302       0.00058590      -0.00046096       0.00006083      -8.74482318
H       -5.19938077       9.88378252       9.49322126      -0.00007240      -0.00191753      -0.00128992      -3.75826593
H       -4.33511133       8.45209574       9.98037264       0.00170106       0.00090495       0.00405065      -3.67821393
N       -1.99942639       9.55766524       9.76790097       0.00062302       0.00186743      -0.00228164      -8.73688524
H       -1.89247466       8.59168117      10.07620228       0.00133437       0.00303321       0.00161470      -3.68507846
H       -1.16070196      10.12723421       9.69228545      -0.00004306       0.00187594      -0.00568575      -3.76680390
Pb       6.75650840      19.53083029      12.88412955       0.00096199      -0.00023457      -0.00016634      -4.61864573
I        9.97170855      19.99863714      12.94553575       0.00077870       0.00108780      -0.00233994      -1.93907626
I       19.64438551      16.42290523       0.10053942       0.00194645      -0.00043978       0.00334061      -1.98136761
I        6.65053406      19.33607304      16.17183321       0.00225117      -0.00302363      -0.00078801      -2.04658744
C       10.07830608      22.94648675      16.59312387      -0.00045465       0.00250863       0.00179025      -8.90230194
H       10.49279851      22.60900926      17.54750453      -0.00022193       0.00638751       0.00307344      -3.44566583
N       10.73549113      23.86097915      15.90911020      -0.00175416       0.00132201      -0.00095634      -8.67081918
H       11.58905427      24.28096027      16.27123685      -0.00275078       0.00435355      -0.00180671      -3.77801303
H       -2.83740740      11.10167192      21.56284105      -0.00253318      -0.00145802      -0.00194211      -3.74071689
N        8.95051374      22.40414138      16.18071651       0.00075616      -0.00097158       0.00305744      -8.70518334
H        8.52258788      22.64439598      15.28296793       0.00000044      -0.00367721       0.00265760      -3.71776136
H        8.47339723      21.70270394      16.74020124       0.00125255       0.00090378       0.00581070      -3.77662753
Pb       6.66451786      19.42786116      19.46888798      -0.00023646      -0.00019213      -0.00090714      -4.67403028
I        9.93834430      19.87002973      19.39003348      -0.00009341       0.00154742       0.00067360      -1.94095780
I       19.43982772      16.37940811       6.34070141      -0.00260100       0.00016139      -0.00752644      -2.01379957
I       -6.27153137      12.60826794       9.70054056      -0.00075242      -0.00000189      -0.00098158      -2.01394806
C        9.89642313       9.35209743      -3.18273945      -0.00276856      -0.00283934       0.00012304      -8.89028886
H       -2.57090190      14.74063722       9.66252861      -0.00316257      -0.00318457       0.00091494      -3.46300111
N       10.57286799      10.29302487      -2.55763565      -0.00306852      -0.00333380       0.00120392      -8.65267176
H       -1.44732856      16.47134349      10.82360481      -0.00373440      -0.00394849       0.00266123      -3.82773861
H       10.13670282      11.17063497      -2.27191637      -0.00277879      -0.00285991       0.00016373      -3.68770001
N        8.66603675       9.52013929      -3.61874241      -0.00191749      -0.00201975      -0.00187581      -8.65115902
H       21.29147546      17.08387753       9.49361360      -0.00196289      -0.00201667      -0.00177561      -3.76428032
H       21.28058928      15.42762525       8.94898607      -0.00164672      -0.00186726      -0.00245727      -3.78981334
Pb      13.14710988      13.15922890      -0.09834112       0.00053178      -0.00079855      -0.00027783      -4.61190131
I        3.49767420      19.35444088      12.66228573       0.00050338       0.00155148      -0.00012748      -2.04429012
I       -0.06354363       3.23546511       6.61991837      -0.00123207      -0.00003069       0.00064418      -2.02178603
I       13.14990111      13.30449713       3.18249769       0.00058136      -0.00179913      -0.00058241      -1.99593515
C       16.04914047      16.40799255       3.20263581      -0.00332417      -0.00324002      -0.00058973      -8.90156728
H       15.08174601      16.77321368       2.84648968      -0.00315631      -0.00880788      -0.00682199      -3.45842649
N       16.46090004      15.22399659       2.79625095       0.00387867      -0.00279133       0.00528744      -8.70926731
H       15.89020738      14.65468171       2.17769490       0.00994929      -0.00662589       0.00319084      -3.77546720
H       17.37884816      14.85294696       3.04404104       0.00423387       0.00202044       0.01105727      -3.69630043
N       16.75035567      17.17457733       4.01095851      -0.01102150       0.00233736       0.00065509      -8.67127472
H       17.59999372      16.83887299       4.47975205      -0.01113181       0.00771848       0.00500706      -3.76742226
H       16.39983963      18.08152113       4.30670125      -0.01678764       0.00187685      -0.00474797      -3.75616980
Pb      13.17507696      13.10638732       6.48359368      -0.00065708      -0.00051839      -0.00129092      -4.67041895
I       16.39942183      12.97056280       6.48672262      -0.00004341      -0.00086188      -0.00002072      -1.92852252
I       12.98691907      16.39718492       6.43610300       0.00310024      -0.00033614      -0.00149889      -2.04713406
I       13.28762606      13.09874402       9.69789650      -0.00457800      -0.00122881      -0.00034376      -1.95414789
C       16.21865031      16.05359486       9.55042001       0.00015314      -0.00396987      -0.00272598      -8.88922397
H       15.39254063      15.42922868       9.90501923       0.00239911      -0.01189927      -0.01135738      -3.46701005
N       16.09215743      16.65476508       8.38618856       0.00278141       0.00180087      -0.00002591      -8.63817896
H       15.23702623      16.55383832       7.83442030       0.00601464       0.00004660      -0.00471640      -3.86573615
H       16.87085221      17.14769553       7.94930984       0.00144050       0.01032089       0.00723897      -3.68314233
N       17.29051667      16.16638238      10.30698323      -0.00527809      -0.00086520       0.00445566      -8.70836899
H       18.02956536      16.83493822      10.08750113      -0.00771534       0.00442315       0.01202407      -3.69018603
H       17.36403550      15.66176074      11.18703565      -0.00728013      -0.00565630       0.00190135      -3.79235641
Pb      13.28813704      13.17160951      12.91935552      -0.00164758      -0.00113815       0.00000810      -4.66199258
I        3.40930921       6.56238237      -0.17101773      -0.00079058      -0.00769647      -0.00482208      -1.97489202
I       12.97094264      16.42528074      12.93645372       0.00011166      -0.00083069      -0.00036984      -1.97414068
I       -0.07645206       6.72097621       3.18776972       0.00004654      -0.00088720       0.00035558      -2.00360560
C        3.13108090       9.72399774       3.53306755      -0.00237952      -0.00169963      -0.00235770      -8.90108854
H        2.64464480       9.66488618       4.51151929      -0.01275487      -0.00922202      -0.00791561      -3.46628815
N        4.03955208       8.82173190       3.22918942      -0.00079246      -0.00062238      -0.00090335      -8.69629921
H        4.26103336       8.06926360       3.87684951      -0.00789000      -0.00579922      -0.00440871      -3.79111902
H        4.54925833       8.85239738       2.34498264       0.00920775       0.00688862       0.00496283      -3.70434561
N        2.77387064      10.69552091       2.72061252       0.00763456       0.00618486       0.00266063      -8.65483904
H        3.19887919      10.82251936       1.80123523       0.01491077       0.01153073       0.00668663      -3.67698881
H        2.04533492      11.36221285       2.97817172       0.00607827       0.00507261       0.00132206      -3.84874784
Pb      13.19359318      19.72656817      12.84456232       0.00089915      -0.00135770      -0.00075285      -4.65934740
I       16.48308510      19.52934483      12.77466524       0.00099317       0.00151213      -0.00025559      -1.96478672
I       13.58474128      22.93196808      12.74960669       0.00073206      -0.00065754      -0.00005052      -1.92175985
I       13.28769644      20.00820056      16.17629152      -0.00035476      -0.00087802      -0.00040979      -2.05007166
C        3.42698148      16.66284923       3.06302058       0.00073841       0.00071020       0.00055793      -8.89319012
H       16.70009212      24.35047925      15.71579599       0.00253420      -0.00015975      -0.00113570      -3.46385741
N       16.36427877      22.37218645      15.19269020      -0.00111058      -0.00048720       0.00219198      -8.76765859
H       16.29867095      22.58354877      14.20273754      -0.00058655      -0.00216656       0.00180784      -3.73884703
H        2.95013040      14.77225612       2.45568294      -0.00394869       0.00091074       0.00392257      -3.63832475
N        3.44517299      16.44553784       4.35977858       0.00051387       0.00276637       0.00090185      -8.65348726
H        3.36293449      15.50608742       4.76175447      -0.00022299       0.00337751       0.00221934      -3.72974320
H        3.57438890      17.21595855       5.01633941       0.00150865       0.00355166      -0.00023589      -3.82643631
Cs       3.51766571      16.26562503       9.70365073       0.00107040      -0.00022409      -0.00075128      -3.66138264
