233
Lattice="-12.957396986651146 6.351727325886291 13.017959588757243 13.11604327292129 6.668741413988977 13.017959588757243 13.195366416056363 13.17897578392661 -6.508979794378622" Properties=species:S:1:pos:R:3:forces:R:3:energies:R:1 energy=-1065.8915804423903 stress="6.853636744716737e-05 0.000506639445887847 0.00019950252614738532 0.000506639445887847 0.00016301139159828737 3.2630233096238483e-06 0.00019950252614738532 3.2630233096238483e-06 -0.000169785760782697" free_energy=-1065.8915804423903 pbc="T T T"
Pb      -6.44086864       6.40284182      13.01955980      -0.00065705       0.00010365       0.00061273      -4.63607958
I       -3.17025497       6.38484379      12.69944784      -0.00067785      -0.00013650       0.00277042      -1.93008248
I       -6.18574601       9.68870748      13.35889847      -0.00117850      -0.00067320       0.00340732      -1.97355521
I        6.73233638      19.29232524       9.76647936      -0.00276100      -0.00125441       0.00056864      -1.93121068
C       -2.92713893       9.72838104      16.38662672       0.00032266      -0.00050668       0.00164093      -8.90629968
H       -2.17022741       9.66912064      17.17560678       0.00463376       0.00241755      -0.00231934      -3.47003532
N       -3.66343528      10.81865174      16.31055634      -0.00470814      -0.00370202       0.00580192      -8.68925690
H       -3.57266384      11.55100911      17.01222017      -0.00432523      -0.00355435       0.00560709      -3.80296718
H       -4.44443979      10.88452951      15.65625907      -0.00827629      -0.00652578       0.00976598      -3.67771364
N       -3.04693013       8.71565101      15.55634500       0.00038130      -0.00078895       0.00198999      -8.67806794
H       -3.71430271       8.73326935      14.78318183      -0.00244167      -0.00260008       0.00442394      -3.69202959
H       -2.43493116       7.90470604      15.63212168       0.00330637       0.00119300      -0.00058650      -3.81736076
Pb       0.26710406      19.48783172       6.54017683      -0.00051522      -0.00091112       0.00107292      -4.63071643
I        3.48060551      19.23759682       6.65133796      -0.00072999      -0.00079445      -0.00162100      -1.96800550
I       13.54593741       9.88605335      13.19416379      -0.00066951      -0.00075230       0.00494086      -1.99121227
I       13.29357650      12.99615023      -3.21412835       0.00174848      -0.01073088       0.00117222      -2.05178345
C        2.98886891       3.15662276       3.41792420      -0.00341590      -0.00024571      -0.00019837      -8.90601859
H        2.08361992       2.59527956       3.16667465      -0.00435874       0.00251898      -0.00282241      -3.43814214
N        3.26041722       4.24409525       2.72823888       0.00142560      -0.00074240       0.00090745      -8.66207881
H        2.63746930       4.55649503       1.98818988       0.00451256       0.00113993      -0.00087916      -3.78981278
H        4.08369951       4.82219117       2.92175993       0.00239675      -0.00294533       0.00325790      -3.74214779
N        3.75071505       2.70641470       4.39155616      -0.00723404      -0.00270511       0.00162924      -8.62588125
H        4.59412213       3.19450877       4.70550628      -0.00664696      -0.00516225       0.00399918      -3.71602348
H       16.70175320      15.03636404      -1.60542853      -0.01035583      -0.00250068       0.00045773      -3.84376196
Pb       0.06175675       6.42601208       6.46751084      -0.00049342       0.00137888      -0.00095025      -4.66677481
I        3.29549650       6.54315182       6.67871484      -0.00056242      -0.00150527      -0.00102175      -1.96566491
I        0.06638222       9.70164361       6.71765846       0.00282207       0.00102773       0.00255361      -1.98149063
I        0.29260628       6.53589095       9.78011934      -0.00194239       0.00234756      -0.00080653      -2.06569677
C        3.63330619       9.92449924       9.90940069       0.00398101       0.00080974      -0.00309722      -8.89862741
H        4.45748453      10.55502668      10.25528910       0.00885590      -0.00544202      -0.00362821      -3.46148632
N        3.42668996       8.77347030      10.51483792      -0.00723589       0.00456738      -0.00004165      -8.70007676
H        4.00987698       8.47888594      11.29306119      -0.01138663       0.00170717       0.00201413      -3.77150149
H        2.66499117       8.15073396      10.24211901      -0.01131124       0.00957141      -0.00003438      -3.70821765
N        2.90115913      10.35437335       8.90407160       0.00946033       0.00442397      -0.00560623      -8.67333151
H        2.11228775       9.82196190       8.52682060       0.00523632       0.01041445      -0.00519180      -3.71662976
H        3.08417347      11.25454039       8.46603581       0.01817610       0.00138709      -0.00802867      -3.79007786
Pb       0.11281525       6.35717008      13.04530310      -0.00111034       0.00012637      -0.00078141      -4.65261733
I        3.37001707       6.21279582      13.26626076      -0.00038501       0.00050281      -0.00196833      -1.96603028
I        0.32805663       9.72756249      13.17061402      -0.00121005      -0.00003129      -0.00089608      -1.95922855
I       12.91021911      19.32478469       9.74103750       0.00143693      -0.00059277      -0.00064792      -2.03070902
C        3.25530692       9.94139699      16.42568744      -0.00499533       0.00159539      -0.00033064      -8.94917645
H        3.18848714      10.88331313      15.87318761      -0.01121322       0.00131672      -0.00000181      -3.43092516
N        2.84289287       8.83720857      15.83697423      -0.00332847       0.00011864       0.00139152      -8.70897263
H        2.41563347       8.86148457      14.91264178      -0.00694019      -0.00124694       0.00300010      -3.81140133
H       16.10839463      21.11682892       9.80159640       0.00097764       0.00052708       0.00154669      -3.65406859
N        3.76669305       9.95673785      17.63869332       0.00039493       0.00361814      -0.00261905      -8.59559578
H       16.97664102      22.28128288      11.69705909       0.00493730       0.00419002      -0.00209913      -3.75816030
H        4.01785827      10.83362977      18.09369991      -0.00086692       0.00466863      -0.00396503      -3.82827306
Pb       0.05780261      13.03437812       6.59201586       0.00082731       0.00138867       0.00025006      -4.62865641
I        3.31957686      13.40029992       6.43662235       0.00097713       0.00539426      -0.00607295      -2.02195499
I       -0.14705725      16.24795718       6.66853465      -0.00365399       0.00011606      -0.00533601      -1.93733903
I        0.37658728      13.20245814       9.77827710       0.00317026       0.00789579      -0.00010665      -1.94731460
Pb       0.14799520      13.01782434      13.00671274      -0.00135768       0.00040698      -0.00065617      -4.64361622
I        3.32988627      13.45867448      12.95888329      -0.00128340       0.00142200       0.00221484      -1.99127477
I       -0.08625650      16.24624873      13.10227444      -0.00995126      -0.00050018       0.01314853      -1.91528524
I        0.08468598      13.28375127      16.30336764      -0.00285047      -0.00650447       0.00027073      -1.98357851
C        3.36401377      15.88257792      16.28895000       0.00156392      -0.00273901      -0.00025163      -8.92252413
H        3.22575652      14.84417131      15.97578190       0.00082348      -0.00175334      -0.00432936      -3.45834845
N        4.53675782      16.44482859      16.08581731      -0.00094297      -0.00302634       0.00502026      -8.72750289
H        5.28793478      15.92113213      15.64478216       0.00178601      -0.00046156       0.00495670      -3.77980010
H        4.72380568      17.42231159      16.30951881      -0.00024878      -0.00261289       0.00908384      -3.66920469
N        2.34726638      16.50896067      16.84285555      -0.00241902      -0.00545569       0.00086594      -8.72793557
H       15.40054272      11.10021503       4.20320089      -0.00180227      -0.00711676       0.00455264      -3.70059012
H        1.46469627      16.02834372      16.99575281      -0.00078117      -0.00580003      -0.00323647      -3.77028109
Pb       0.08600045      12.96717300      19.50833863      -0.00063226       0.00017040       0.00035783      -4.66888201
I        3.38246463      13.07256435      19.58892906      -0.00050427       0.00301399      -0.00090508      -2.04749534
I       12.76337322       9.83495270       6.67646971      -0.00105511       0.00002954      -0.00131002      -1.92232896
I        0.10563831      12.98894952      22.80938690      -0.00073255       0.00146699       0.00098623      -2.02105841
C        3.34116817      16.07730968      22.64123347      -0.00185219      -0.00434239      -0.00221225      -8.91626620
H        3.42162407      15.06065046      23.03550444      -0.00471705      -0.00716015      -0.00909612      -3.43389122
N        3.50406119      16.26888589      21.35000538       0.00044226       0.00392955      -0.00063648      -8.63464465
H        3.62936884      15.46850921      20.72766774       0.00057300       0.00783204      -0.00540544      -3.84847085
H        3.47093895      17.19921361      20.92216348       0.00155642       0.00637512       0.00483721      -3.73858374
N       16.07624351      10.71074309      10.47342015      -0.00071272      -0.00981149       0.00434372      -8.71667046
H       15.88863871      11.65689653      10.14792405       0.00307405      -0.00680866       0.01098681      -3.65953749
H       15.87643888      10.52454248      11.45131501      -0.00376050      -0.01629883       0.00245602      -3.77953418
Pb       6.49899679       6.59016237      -0.00983640      -0.00060262      -0.00074934      -0.00024364      -4.65363406
I       -3.14320386      12.82924024      12.48436489      -0.00104610      -0.00177654      -0.00444778      -2.06199980
I        6.75271961       9.84337485       0.08983056       0.00109517      -0.00099903       0.00077340      -1.94646315
I        6.23164055       6.56266259       3.27107606      -0.00016407       0.00048302      -0.00032361      -1.98496319
C       10.11603345       9.89648765       3.37900697       0.00020211      -0.00089058       0.00288689      -8.89025721
H       11.10462246       9.45794941       3.21316441      -0.00057213      -0.00247608       0.00245599      -3.46141884
N        9.75501787      10.92794572       2.64645193       0.00195542       0.00007878       0.00345052      -8.65144095
H       10.39116812      11.34277488       1.97070130       0.00241008      -0.00180756       0.00271135      -3.78860288
H        8.83415182      11.36440268       2.75084224       0.00302931       0.00218648       0.00412324      -3.76030477
N        9.33949017       9.35468200       4.29388589      -0.00042130      -0.00003292       0.00285323      -8.64084725
H        8.44049443       9.76289322       4.55613412      -0.00007127       0.00076863       0.00286450      -3.69035058
H        9.65787147       8.56704246       4.85923205      -0.00137165      -0.00068682       0.00245950      -3.84953877
Pb       6.49340732       6.53240915       6.54636719      -0.00055036      -0.00006876       0.00035111      -4.66948930
I        9.80776000       6.42640212       6.54163475      -0.00077082      -0.00100249       0.00238454      -2.04826993
I        6.48473225       9.83086779       6.64480160      -0.00305910       0.00046896      -0.00301828      -2.00001046
I        6.61763739       6.70669726       9.77469372       0.00010185       0.00300694      -0.00041725      -1.97154207
C        9.86819472       9.73259448       9.46741902       0.00003604      -0.00087350      -0.00183853      -8.93738358
H        9.83502707       9.03023633       8.63016932       0.00251542       0.00074677      -0.00331111      -3.45630278
N       11.01348226       9.90917343      10.09210209      -0.00186107      -0.00164607       0.00154111      -8.74404285
H       11.84723322       9.40922546       9.79495926      -0.00096868      -0.00124303       0.00341668      -3.76457881
H       11.09409843      10.54258347      10.88712446      -0.00478375      -0.00415083       0.00395778      -3.67611208
N        8.76059928      10.36220086       9.80190905      -0.00118598      -0.00174355      -0.00387422      -8.72999497
H        8.74920603      11.03180656      10.57217480      -0.00322162      -0.00256494      -0.00322704      -3.69234643
H        7.90566831      10.22730403       9.26869276       0.00015891      -0.00173593      -0.00588708      -3.76848020
Pb       6.65187168       6.56109765      13.04415073      -0.00112045       0.00165654      -0.00031533      -4.66776268
I        9.85069831       6.86986194      12.83705153      -0.00068840       0.00432195       0.00313156      -1.95620914
I        6.29974441       9.78339590      13.25377653      -0.00300352       0.00029437      -0.00029540      -1.97587611
I       20.06717890      19.83898788       9.77048119      -0.00043144      -0.00075729      -0.00003928      -1.98563182
C       10.06776277       9.89713471      16.56491545       0.00397507       0.00031345       0.00560512      -8.91629671
H       -2.31372424       3.44927281       4.32736569       0.00045842       0.00096656       0.00886188      -3.44798267
N       10.18248994       8.76668442      15.90153695       0.00958922       0.00157915       0.00454768      -8.66897161
H       11.01253604      14.61936516      -3.41659341       0.00989992       0.00276773       0.00688033      -3.83053769
H        9.54091805       8.49808976      15.15433872       0.01499582       0.00206988      -0.00039965      -3.68554047
N        9.11399771      10.77713696      16.33481803       0.00287017      -0.00188849       0.00335491      -8.73717518
H        8.39370153      10.62165670      15.63064443       0.00480560      -0.00334401       0.00159295      -3.64593354
H        9.06179181      11.63708557      16.87416585      -0.00111728      -0.00233034       0.00382237      -3.78881076
Pb       6.71244826      13.11255664      -0.03413034       0.00049760      -0.00050917       0.00006829      -4.63307005
I        9.94762719      13.42637358      -0.15200422      -0.00033896       0.00054559       0.00145169      -1.97694093
I        6.89050258      16.36574709       0.38595334      -0.00071765      -0.00006827      -0.00005641      -2.00869502
I        6.51133622      12.75210918       3.25475345       0.00250121       0.00207727       0.00006792      -2.04101411
C        9.98147559      16.60484781       3.20680545       0.00066426       0.00240973      -0.00287154      -8.90901576
H        9.55945642      17.53431852       2.81560946       0.00103234      -0.00017694      -0.00933739      -3.43766344
N       11.26271641      16.56824222       3.51332718      -0.00023663       0.00529719       0.00106519      -8.68196846
H       11.84742778      17.39929362       3.43683218      -0.00078309       0.00546511      -0.00159069      -3.81873036
H       11.72876772      15.68654151       3.73957908      -0.00000960       0.00728928       0.00778204      -3.73073105
N        9.18137308      15.56693800       3.35539853       0.00105290       0.00263140       0.00059401      -8.75229369
H        9.46427288      14.75504789       3.90348069       0.00043301       0.00539783       0.00504517      -3.67514065
H        8.22113203      15.59948833       3.02824896       0.00194149       0.00019277      -0.00220440      -3.75223482
Pb       6.52269534      13.11350183       6.53073832       0.00056197       0.00118665      -0.00045439      -4.63808310
I        9.81712992      13.37177929       6.59365796       0.00091399       0.00058113      -0.00007012      -2.00104150
I        6.71075355      16.33650278       6.52116375       0.00174188       0.00035177       0.00127206      -1.95124088
I        6.18103407      13.15671285       9.75715951      -0.00189801       0.00014309      -0.00044431      -2.02566576
C       10.00364464      16.25783871       9.88244057       0.00112849      -0.00363427       0.00224557      -8.90400439
H       10.38916762      16.76516089      10.77177470       0.00056516      -0.00504247       0.00329671      -3.44871854
N        9.57595291      15.01596279       9.99411533       0.00118020      -0.00380171      -0.00004617      -8.64403058
H        9.60662085      14.51621733      10.88341641       0.00057404      -0.00517882      -0.00071302      -3.83282580
H        9.34850706      14.46910905       9.16071436       0.00223130      -0.00266316      -0.00112221      -3.71873055
N        9.98043937      16.91970156       8.74299043       0.00173745      -0.00173076       0.00329113      -8.72908821
H        9.47077998      16.56275882       7.93496264       0.00240096      -0.00053707       0.00237343      -3.67242712
H       10.35663539      17.86055590       8.66971558       0.00190505      -0.00167624       0.00504053      -3.77899771
Pb       6.47517820      13.00209934      13.04737291      -0.00059472      -0.00043256       0.00013357      -4.62825207
I        9.85339616      12.59984237      12.81799106      -0.00090577      -0.00330201      -0.00054312      -2.05170435
I        6.89412489      16.23965042      12.95637700       0.00106903      -0.00055287       0.00208360      -2.00874936
I        6.29755390      13.07814393      16.27716551       0.00233448      -0.00097184      -0.00014231      -1.97130417
C       10.03502753      16.49900190      15.92194664      -0.00017994       0.00126532       0.00053602      -8.90567032
H       10.19842730      17.02700841      14.97799660      -0.00119319       0.00277759       0.00119598      -3.46905413
N       10.97983520      16.54699780      16.83644092       0.00219717       0.00517588       0.00045880      -8.74829351
H       11.82045190      17.09963977      16.69172503      -0.00143462       0.00731883       0.00031543      -3.78481886
H       10.91206775      16.02304824      17.70816828       0.00304212       0.00548205      -0.00003405      -3.66181318
N        8.90601867      15.84032395      16.08063408       0.00475354      -0.00111802      -0.00088399      -8.66528650
H        8.64877386      15.42127950      16.97410615       0.00610912      -0.00565709       0.00036743      -3.68005476
H        8.21226723      15.82869616      15.33274841       0.00330703      -0.00376305       0.00186407      -3.83353521
Pb       6.67427060      13.11807944      19.61555309      -0.00091101       0.00034221       0.00048220      -4.65342849
I       -3.21439327       6.62410044       6.24708929      -0.00052801       0.00415761      -0.00052980      -2.03798073
I        6.92553497      16.33745375      19.48028488      -0.00262001       0.00016690      -0.00162600      -1.96906163
I       -6.58447567       6.58926852       9.77595090       0.00123267       0.00092810       0.00037180      -1.92561858
C       -3.04875000       9.52202481       9.51962619      -0.00105436      -0.00122319      -0.00142987      -8.92714111
H       -3.04109935       8.78410435       8.71148116       0.00147322      -0.00261294      -0.00012518      -3.45242547
N       -4.06757001      10.35217016       9.59665773      -0.00442172      -0.00535865      -0.00230292      -8.68497412
H       -4.81226678      10.32374294       8.90248662      -0.00446570      -0.00928998      -0.00220883      -3.80813154
H       -4.10064325      11.08689032      10.30511036      -0.00662946      -0.00367460      -0.00423966      -3.70139291
N       -2.03829099       9.53832899      10.36340449      -0.00060336       0.00439864      -0.00209150      -8.69153927
H       -2.00942290      10.18220021      11.15370772      -0.00324633       0.00548838      -0.00287945      -3.67139285
H       -1.28368084       8.85851571      10.28831951       0.00198853       0.00724807      -0.00122049      -3.82170136
Pb       6.81756581      19.50573580      12.95089395      -0.00073213      -0.00096406       0.00064006      -4.63516071
I       10.02518626      19.42635792      12.92323010      -0.00015806       0.00131398      -0.00121866      -1.95597251
I       19.79160503      16.45643840       0.05263743      -0.00445732      -0.00029548      -0.00091458      -1.95461835
I        6.75733925      19.57399774      16.26731819       0.00233711      -0.00169184       0.00007304      -1.98885211
C       10.38872989      22.76249869      16.18144914       0.00185685       0.00002201      -0.00151677      -8.91645074
H       11.38000963      23.04339654      15.81559401       0.00021508      -0.00077429      -0.00664053      -3.45146227
N       10.04768922      21.49012504      16.15676429      -0.00000832       0.00056427      -0.00241603      -8.69907118
H       10.71752443      20.78322290      15.86271318      -0.00308356       0.00021990      -0.00816560      -3.79327061
H        9.10196136      21.17074639      16.37894631       0.00052943       0.00154123       0.00132318      -3.71029843
N       22.54120256      17.36224691       3.59258621       0.00572610       0.00021313       0.00518825      -8.74070822
H       21.66329833      17.14172403       4.06544786       0.00871061       0.00030823       0.01111430      -3.70707820
H        9.64243290       5.15284292      10.12452479       0.00731643      -0.00030441       0.00526915      -3.72843285
Pb       6.71753311      19.58810230      19.49114796       0.00019586      -0.00008521      -0.00064711      -4.66619071
I        9.94861048      19.44814792      19.47609641       0.00081388      -0.00112813       0.00092991      -1.93005179
I       20.03354172      16.46808591       6.37915868       0.00057964       0.00056124      -0.00315049      -1.98115579
I       -6.74971074      13.01805183       9.76969248      -0.00330268      -0.00297173      -0.00056886      -1.98334740
C        9.88089788       9.92985995      -3.25149977      -0.00360290       0.00019172      -0.00162046      -8.92073855
H        9.92985435      10.75988199      -3.96070436      -0.00325546      -0.00078092      -0.00275306      -3.43379054
N        9.74847174      10.19639413      -1.96738093       0.00106056       0.00213431      -0.00156309      -8.67584070
H        9.73031681      11.15316132      -1.61251156       0.00360650       0.00252731      -0.00254774      -3.85610664
H        9.66882341       9.44390669      -1.28463490       0.00186173       0.00321454      -0.00028202      -3.67030649
N       -3.01128669      15.04799874       9.30674958      -0.00849179      -0.00053802      -0.00028514      -8.67846159
H       -2.96187122      14.25722169       9.95039307      -0.01059023       0.00005826       0.00071024      -3.70002001
H       -2.91052173      14.84213176       8.31432081      -0.01157975      -0.00242150      -0.00022445      -3.80238806
Pb      13.20405491      13.08586990       0.03426012      -0.00092010      -0.00160442       0.00152576      -4.64426768
I        3.48238050      19.12263685      12.93387787      -0.00107263      -0.00288741       0.00284117      -2.03264121
I        0.20262890       3.18871284       6.52649754      -0.00525968      -0.00007990      -0.00415326      -1.97049397
I       12.85416908      13.11028130       3.28973695       0.00031092       0.00331751       0.00059129      -1.98864831
C       16.47855131      16.64805205       2.92008170       0.00070787       0.00208927      -0.00444274      -8.90479440
H       16.54522548      17.00577192       1.88942462       0.00155816       0.00100987      -0.00457737      -3.46396597
N       17.41718496      17.01174806       3.76764109      -0.00021763       0.00354089      -0.00365310      -8.70995128
H       18.15038599      17.66701318       3.49613373      -0.00034638       0.00375494      -0.00378673      -3.84227474
H       17.41974823      16.70282976       4.73699086      -0.00129289       0.00507919      -0.00344057      -3.63273167
N       15.47136528      15.86398014       3.24669783       0.00096057       0.00184720      -0.00433547      -8.70386594
H       15.31330758      15.56171634       4.20833847       0.00094990       0.00160523      -0.00466058      -3.68859959
H       14.75468004      15.63581080       2.56142898       0.00137971       0.00095904      -0.00473580      -3.79113758
Pb      13.05558651      13.08767617       6.56957828       0.00138506      -0.00036104      -0.00062186      -4.67652550
I       16.35916942      13.02921704       6.22283761       0.00076916      -0.00010453      -0.00586358      -2.03018275
I       13.50812275      16.32393232       6.53826394       0.00048840      -0.00001780      -0.00169261      -1.93504367
I       13.21498014      13.11676460       9.78289821       0.00592114      -0.00161458      -0.00045670      -1.96200907
C       16.52591065      16.78883257       9.72078634       0.00202844       0.00247267      -0.00069649      -8.88483248
H       16.04219931      17.68952434       9.33326673       0.00555566       0.00489048       0.00059007      -3.47417304
N       15.77224535      15.73860744       9.97571916      -0.00166212       0.00400515      -0.00543356      -8.72144015
H       14.77971922      15.73932920       9.76694663      -0.00100583       0.00737647      -0.00834786      -3.73230638
H       16.12494451      14.95398908      10.52705915      -0.00533244       0.00131071      -0.00708852      -3.72592764
N       17.82941629      16.80242571       9.89951685       0.00160426      -0.00160551       0.00250694      -8.65933973
H       18.34121024      15.94462252      10.12126264      -0.00119228      -0.00355366       0.00144566      -3.72449700
H       18.37604885      17.65144493       9.74927667       0.00418336      -0.00265691       0.00576652      -3.83149142
Pb      13.10933463      13.11370189      13.04462582       0.00022960      -0.00035934      -0.00111577      -4.65669149
I        3.27814295       6.75320843      -0.07497545      -0.00077491      -0.00101495      -0.00317594      -1.97586878
I       13.17962595      16.35398817      13.26676228      -0.00040256      -0.00015305      -0.00355234      -1.98587008
I        0.00443660       6.41341582       3.26114492       0.00078374       0.00530340      -0.00060867      -1.94656794
C        3.57393427       9.68947797       3.16337054       0.00446621      -0.00283507      -0.00317294      -8.90691427
H        4.51314827       9.91979145       3.67345191       0.00711444      -0.00579134      -0.00690234      -3.44538403
N        3.43974584      10.03657810       1.90050555      -0.00041011      -0.00038046      -0.00193821      -8.66473699
H        4.22767293      10.41181403       1.37550866      -0.00170895      -0.00117972      -0.00451328      -3.80387036
H        2.56817715       9.86432594       1.38999619      -0.00243557       0.00135329       0.00102255      -3.74561216
N        2.61305130       9.10436055       3.85494953       0.00612119      -0.00178271       0.00023591      -8.70533113
H        1.78408314       8.72562265       3.39450663       0.00384963      -0.00017168       0.00313156      -3.69377182
H        2.76183418       8.81526283       4.81792591       0.01035284      -0.00451092      -0.00124494      -3.78481618
Pb      13.26133956      19.63459202      12.95628607       0.00067791      -0.00022883      -0.00029846      -4.66266135
I       16.55204571      19.79159847      12.53134200       0.00053774       0.00147992      -0.00067764      -2.02551210
I       13.12900500      22.85440180      12.88599798       0.00112806       0.00001512       0.00113478      -1.94946678
I       13.38145640      19.64190366      16.25551564       0.00037788      -0.00064209      -0.00052136      -2.03816051
C        3.25513653      16.58578725       3.07323418      -0.00140642       0.00115963      -0.00263217      -8.90073706
H        3.47162993      17.62507112       2.81055484      -0.00331735       0.00013021      -0.00794135      -3.44748438
N        2.07193670      16.29432337       3.56995211      -0.00085929       0.00160339      -0.00096596      -8.67022397
H       14.49378947      23.69792385      16.72128978      -0.00173709       0.00128681      -0.00358095      -3.82219820
H        1.77179492      15.32971788       3.72765346       0.00083289       0.00203324       0.00382004      -3.71630171
N        4.19925301      15.68609571       2.88248741       0.00003408       0.00169652       0.00165361      -8.69589048
H        4.11304797      14.73597210       3.23624613       0.00192525       0.00354577       0.00687588      -3.62809112
H        5.06379956      15.92826525       2.39915261      -0.00052605       0.00086848       0.00016948      -3.84354637
Cs       3.41573327      16.33809081       9.69443750       0.00260486      -0.00006815      -0.00100530      -3.67662723
