233
Lattice="-12.957396986651146 6.351727325886291 13.017959588757243 13.11604327292129 6.668741413988977 13.017959588757243 13.195366416056363 13.17897578392661 -6.508979794378622" Properties=species:S:1:pos:R:3:forces:R:3:energies:R:1 energy=-1065.8188261129583 stress="-0.00015309872900909883 0.0007131899491140405 -0.0001286102057538878 0.0007131899491140405 -0.00020571824470097573 0.00012684035956226532 -0.0001286102057538878 0.00012684035956226532 -0.00032536659931238466" free_energy=-1065.8188261129583 pbc="T T T"
Pb      -6.40570970       6.32921305      13.15172041      -0.00084282       0.00022129      -0.00073108      -4.63011004
I       -3.14900240       6.75223377      12.91455448      -0.00108480      -0.00264030      -0.00171268      -1.90621852
I       -6.54741582       9.66353834      12.99298866      -0.00281748       0.00096776      -0.00137575      -2.05115008
I        6.59330286      19.37722468       9.84901177      -0.00096358       0.00364381      -0.00065569      -1.96201961
C       -3.43640259       9.99087948      16.22449983      -0.00277678       0.00314638       0.00097997      -8.91033311
H       -4.09682247      10.86068952      16.15309633      -0.00513249       0.00175638       0.00175233      -3.46830980
N       -3.64552444       9.13197819      17.19935779       0.00188755       0.00402391       0.00238607      -8.67240254
H       -4.40699887       9.26867419      17.86463681       0.00249785       0.00306721       0.00448147      -3.83556097
H       10.14108272      21.48933127      10.82099760       0.00333617       0.00528599       0.00174695      -3.67317022
N       -2.47208638       9.86226024      15.33838558      -0.00530872       0.00388528      -0.00071411      -8.67405381
H       -1.84465739       9.05596893      15.34987228      -0.00327498       0.00590426      -0.00208800      -3.71446028
H       -2.36578374      10.53215423      14.57976773      -0.00804855       0.00445183      -0.00231732      -3.80417327
Pb       0.30720897      19.46489978       6.52646589      -0.00120665      -0.00073936      -0.00084334      -4.63781662
I        3.55828275      19.12775829       6.66341420      -0.00109369       0.00047803      -0.00266371      -1.95849507
I       13.32451130       9.85915054      13.08304345      -0.00701738       0.00009241      -0.00590439      -2.01130395
I       13.36950122      13.14345433      -3.24578769       0.00489575       0.00290071      -0.00058664      -2.03807731
C        3.46871536       3.39961556       3.30472102      -0.00026205       0.00427157      -0.00519427      -8.89389984
H        4.36730104       3.89068665       3.69011466      -0.00011592       0.01141146      -0.01100235      -3.45477147
N        2.42798669       3.28461727       4.10446186       0.00661175      -0.00235418       0.00339718      -8.75173031
H        2.42831536       3.71006529       5.02572480       0.01167356      -0.00072649       0.00466593      -3.76368217
H        1.63027023       2.69962063       3.86008609       0.00890147      -0.00616775       0.01054200      -3.66185278
N        3.47853133       2.94702649       2.06900568      -0.00650233       0.00506637      -0.00165283      -8.61605721
H        2.62769367       2.61658142       1.61196280      -0.00835890      -0.00066909       0.00188171      -3.69757551
H       -8.64286243       9.38667182      14.50327549      -0.01011427       0.00749837      -0.00932017      -3.87393138
Pb       0.06642757       6.49081890       6.46140581       0.00116964      -0.00068216       0.00110533      -4.64928098
I        3.31151448       6.45565761       6.20676883       0.00050814       0.00123254      -0.00019388      -1.97751597
I        0.37685265       9.75324243       6.38345967       0.00373853       0.00031486       0.00674590      -2.00718105
I        0.26913255       6.53472553       9.75066633       0.00277093      -0.00482243       0.00057931      -1.95983623
C        3.08287608       9.74441303       9.93434127      -0.00061062      -0.00074386       0.00002421      -8.89284527
H        2.21388415       9.86739222      10.58854322      -0.00260504       0.00224876      -0.00259425      -3.47517180
N        3.85190814       8.69454629      10.12263215      -0.00618637      -0.00159661      -0.00182288      -8.62912329
H        3.67232530       8.04381951      10.88978302      -0.01058708      -0.00475846      -0.00019011      -3.85382040
H        4.71496963       8.55607445       9.59346051      -0.00475325      -0.00597225       0.00295316      -3.69843711
N        3.29952385      10.64406178       9.00061234       0.00721814      -0.00059195       0.00220988      -8.62415883
H        4.07186864      10.54663535       8.33462340       0.00628777      -0.00133116       0.00417070      -3.73821193
H        2.67530279      11.44156872       8.89768110       0.00832590       0.00475205       0.00187689      -3.80845790
Pb       0.11132948       6.58316614      12.97268460      -0.00130119      -0.00015086       0.00069581      -4.66505344
I        3.38871460       6.51449298      13.13445386      -0.00157861       0.00075436       0.00335812      -1.95644324
I        0.23098450       9.80475122      12.82174261      -0.00357323      -0.00024882      -0.00092194      -1.97276687
I       12.79241091      19.85526593       9.74930521      -0.00593636       0.00269594       0.00006414      -2.03404967
C        3.31832214       9.94232911      16.65091796      -0.00161154      -0.00073182       0.00766354      -8.89959942
H        2.91763507       9.64972206      17.62650230       0.00277896       0.00378270       0.01052296      -3.45440362
N        4.58297594       9.69476058      16.38686479      -0.00208898      -0.00169559       0.00356390      -8.62223894
H        5.18026075       9.26255501      17.08826098       0.00018380       0.00151480       0.00320338      -3.80449425
H        4.98527469       9.82215813      15.44987613      -0.00542027      -0.00389217       0.00204706      -3.76799968
N        2.50311738      10.52261386      15.79158158      -0.00520573      -0.00529338       0.00799345      -8.69087563
H        2.85327659      10.97581715      14.94313946      -0.00866426      -0.00861209       0.00505711      -3.72713162
H        1.54010990      10.72131795      16.04342884      -0.00407714      -0.00370202       0.01170981      -3.75455888
Pb       0.21653257      12.98397361       6.45305206       0.00099461       0.00096717       0.00123027      -4.63778492
I        3.47870255      13.41673688       6.47314904       0.00033680       0.00341491      -0.00626167      -2.06886136
I        0.26351371      16.22911837       6.51237859      -0.00099192      -0.00002896      -0.00071314      -1.97111938
I        0.48061801      13.09050428       9.72680337       0.00897219       0.00523875       0.00005445      -2.05791113
Pb       0.12156360      13.05419309      12.92856135       0.00054832       0.00041953      -0.00034684      -4.62165174
I        3.36010777      13.07979608      13.18414000      -0.00161455      -0.00477436       0.00764014      -1.99968397
I        0.52385752      16.27265899      12.81984523       0.00194661      -0.00019275      -0.00221022      -1.96320326
I       -0.21855128      13.17799172      16.22408087      -0.00122083       0.00214808      -0.00074138      -2.06004408
C        3.40437250      15.93963551      16.29138657       0.00123315      -0.00482869       0.00193300      -8.90465520
H        3.75979176      14.96453019      15.94619991      -0.00316070      -0.00712200       0.00365274      -3.45793793
N        4.30067461      16.84778258      16.61931122       0.00487294      -0.00758429      -0.00218762      -8.77735895
H        5.29060486      16.67209825      16.48930809       0.00439406      -0.01238039      -0.00322906      -3.72763032
H        4.04222670      17.71690044      17.08456234       0.00937748      -0.00440901      -0.00574079      -3.67208047
N        2.10575740      16.14628229      16.36611531       0.00195353      -0.00012000       0.00380709      -8.63645145
H        1.71056967      17.08162856      16.50868074       0.00520355       0.00126454       0.00291684      -3.74743647
H        1.44942387      15.40151377      16.13272014      -0.00083048       0.00126063       0.00691892      -3.82267581
Pb       0.17131847      12.97926576      19.47761328       0.00008949       0.00047835       0.00017200      -4.64913144
I        3.37084377      13.02829380      19.41647251       0.00064318       0.00000471       0.00051920      -1.92320444
I       13.11305240       9.90992114       6.81031050       0.00161438      -0.00012873       0.00169919      -1.96201407
I        0.26009579      13.26574819      22.74835519      -0.00412048      -0.00404283      -0.00090248      -2.03739569
C        3.60524125      16.24118039      22.97055010       0.00347160      -0.00307522       0.00330087      -8.91030511
H        4.46345594      16.81184052      23.33329998       0.00433367      -0.00804746       0.00810824      -3.44895333
N       15.39397319      10.49295104       9.87735721       0.00676490       0.00208856      -0.00124871      -8.72632643
H       15.27366855      11.44841348      10.20204480       0.00956390       0.00167911       0.00097964      -3.77948923
H       14.58328190      10.03399471       9.46238788       0.00682247       0.00750775      -0.00791022      -3.67993339
N        3.78326979      14.97978467      22.63079271      -0.00084482      -0.00418166       0.00165298      -8.68444262
H        3.00971651      14.40928522      22.28840024      -0.00150124      -0.00032323      -0.00088478      -3.69328488
H        4.69975983      14.53647329      22.68506158      -0.00241807      -0.00743301       0.00483586      -3.82615305
Pb       6.48213160       6.57351646      -0.06822727      -0.00087921       0.00150772      -0.00039810      -4.64959672
I       -3.15798740      12.76045972      12.78045272      -0.00145750       0.00332204      -0.00374412      -2.01195555
I        6.44350028       9.77919597       0.38015963      -0.00408716       0.00042707       0.00287488      -2.02729219
I        6.49751806       6.47022212       3.22934287      -0.00183984       0.00074085      -0.00018304      -1.95740247
C        9.69685784      10.02629212       3.24165869      -0.00185772       0.00010643       0.00108561      -8.89079789
H        9.20136273      10.95766433       2.95238601      -0.00340382       0.00064880       0.00307615      -3.47960047
N        9.70341539       9.03218130       2.37960142       0.00194216       0.00306155      -0.00010895      -8.71149524
H        9.18100557       9.09075329       1.51052829       0.00083102       0.00537503      -0.00428361      -3.76309968
H       10.25036253       8.18675282       2.54579339       0.00154864       0.00407339      -0.00457195      -3.70161277
N       10.25720970       9.96500278       4.43077435      -0.00387047      -0.00358221      -0.00031735      -8.66067785
H       10.66089823       9.09956049       4.78765826      -0.00407629      -0.00310036      -0.00029760      -3.68694129
H       10.24843206      10.77115240       5.05700349      -0.00499961      -0.00316618       0.00397876      -3.84420646
Pb       6.55212864       6.64510603       6.39339363      -0.00039842       0.00004908       0.00045134      -4.64008245
I        9.80528130       6.51546455       6.31539412       0.00023403       0.00097911      -0.00019410      -1.97816137
I        6.30884029       9.88900817       6.85104194       0.00086147       0.00012902      -0.00211971      -1.98511962
I        6.94060246       6.88348759       9.82929006      -0.00094313       0.00169155      -0.00016681      -2.04315207
C        9.80086402      10.15082312       9.64017777      -0.00095328       0.00287886       0.00221017      -8.91550090
H       10.52290634      10.96846040       9.55869904      -0.00142259       0.00342943       0.00550383      -3.45306254
N        8.65617165      10.37931867      10.25065481      -0.00148598      -0.00019369       0.00218422      -8.69436783
H        8.42960399      11.29898609      10.61962812      -0.00252543      -0.00167152       0.00483014      -3.79270172
H        7.96262856       9.63996473      10.36387683      -0.00128132      -0.00111667      -0.00137287      -3.68866931
N       10.11827959       8.97973800       9.12965302       0.00047594       0.00444765      -0.00180307      -8.66725502
H        9.45136542       8.20667711       9.12940700       0.00111139       0.00415116      -0.00462032      -3.70006236
H       11.00758346       8.84088763       8.65550881       0.00069089       0.00717329      -0.00166048      -3.82333761
Pb       6.70100613       6.62977158      13.07858051      -0.00132197      -0.00018393       0.00035606      -4.65173117
I        9.93560207       6.67134069      13.26351193      -0.00133638      -0.00600473       0.00281380      -1.93064659
I        6.48508055       9.88601808      13.26881891      -0.00036819      -0.00054880       0.00396072      -2.00484614
I       20.09547380      19.86315578       9.87263902       0.00088538      -0.00306359       0.00012576      -2.00241658
C        9.81071714       9.75543108      16.30935194       0.00379070      -0.00071097      -0.00095881      -8.90013134
H        9.13012637       9.39464398      15.53328265       0.00567135      -0.00523444       0.00048850      -3.45294754
N       -3.74316719       3.15787425       4.53351717       0.00011469       0.00236898       0.00072774      -8.70585014
H        8.43167821       9.54039348      17.81032396       0.00096445       0.00012114      -0.00170980      -3.79766323
H       -3.13421000       3.48855131       5.28252423      -0.00272857       0.00742870      -0.00097142      -3.68796011
N       -2.08383552       3.44302053       2.94959197       0.00212476       0.00161743       0.00223418      -8.68031714
H       -1.41916031       3.77153170       3.65026817       0.00102514       0.00476377       0.00160078      -3.68601612
H       11.37812195      10.02724446      15.01211958       0.00457713      -0.00017670       0.00182288      -3.82291891
Pb       6.66678487      12.98222568       0.07378923      -0.00055533      -0.00038099       0.00018407      -4.63815714
I        9.93283637      12.80729576       0.08996327      -0.00060052      -0.00281737      -0.00210663      -1.95917898
I        6.40642111      16.25326635       0.20065923       0.00133782      -0.00001536       0.00044674      -2.06557777
I        6.93059753      12.96418922       3.37280249      -0.00039340       0.00017930       0.00075937      -1.99574954
C       10.33787595      16.12525607       3.22354928       0.00899306      -0.00552094       0.00124550      -8.91073118
H       11.23652930      15.50143161       3.25212615      -0.00334975      -0.00605397       0.00191863      -3.45465332
N        9.41812249      15.84821811       2.32275722       0.00202157       0.00431063      -0.00230221      -8.68868629
H        9.52452278      15.04915407       1.69701235       0.00462001      -0.00644606      -0.00807603      -3.84514974
H        8.55189376      16.38128066       2.25699051       0.00584002       0.00241243      -0.00906370      -3.66284201
N       10.23486752      17.11539812       4.08268871      -0.00149895      -0.00174436      -0.00559540      -8.66692532
H        9.42917748      17.74228861       4.09528026       0.00705706      -0.00022887      -0.00642081      -3.70289104
H       10.96373214      17.27460656       4.77578874       0.00300203      -0.00457068      -0.00023810      -3.81871216
Pb       6.75811281      13.15445580       6.64618755      -0.00060612      -0.00023676      -0.00021555      -4.63632117
I        9.96293073      13.00834610       6.63115708      -0.00031377      -0.00076313       0.00075219      -1.97808733
I        7.14925766      16.35012546       6.59300144      -0.00278787       0.00007051       0.00234659      -1.95341954
I        6.44237428      13.51435323       9.90184034      -0.00419437      -0.00293083       0.00131195      -2.03654276
C        9.76380833      16.23184992       9.73898718      -0.00124079      -0.00161743       0.00079448      -8.89283123
H        9.23934582      15.39017496       9.27722605       0.00052219      -0.00433828       0.00268575      -3.45302701
N       10.02867128      16.17057337      11.02804833      -0.00168210       0.00362951      -0.00016372      -8.66562868
H        9.83565549      15.32250727      11.56189579      -0.00163252       0.00298360       0.00371550      -3.83801008
H       10.41421683      16.96777386      11.53553615      -0.00463892       0.00455241      -0.00094700      -3.69897176
N       10.09726409      17.25383160       8.98029929      -0.00243345      -0.00362871      -0.00062600      -8.69473705
H       10.69956714      18.00981732       9.31618635      -0.00504856      -0.00136860      -0.00416005      -3.72982759
H        9.79507949      17.30350052       8.01187069      -0.00318115      -0.00670972      -0.00336038      -3.76689956
Pb       6.58103597      13.17739845      13.15603908      -0.00171399       0.00095942       0.00117965      -4.62766297
I        9.83949747      12.95108042      12.95556459      -0.00185021       0.00336127       0.00114139      -1.99644425
I        6.54529848      16.39243649      13.23461099      -0.00248918       0.00032225      -0.00681854      -1.96183740
I        6.87926507      13.62648313      16.38534775       0.00407339       0.00936967       0.00068896      -2.00549608
C       10.27233567      16.57743521      16.35929116       0.00149519       0.00707957       0.00188226      -8.91739749
H       11.17759287      17.17973152      16.47868613      -0.00242662       0.01381379      -0.00073061      -3.45145890
N        9.45305286      16.46403972      17.38359683       0.00206964       0.00741127       0.00317782      -8.70584690
H        9.62455167      16.97387681      18.24712070      -0.00111057       0.01244372      -0.00003918      -3.79531352
H        8.64426073      15.84184497      17.35402116       0.00348342       0.00503598       0.00407544      -3.69988036
N       10.05525921      16.00224358      15.19452768       0.00611740       0.00020238       0.00517505      -8.70590345
H        9.20128312      15.47814249      15.00546786       0.01105128      -0.01112631       0.00952981      -3.67359299
H       10.74190064      16.08114009      14.44585602       0.00506054       0.00062799       0.00479490      -3.81380836
Pb       6.63966301      13.12747635      19.57195617       0.00090776       0.00164234       0.00066131      -4.64954098
I       -3.20710870       6.43891006       6.62438629       0.00068312      -0.00049596       0.00087262      -1.96954738
I        6.71796182      16.29368259      19.96701483       0.00206866       0.00033200       0.00491436      -1.93930916
I       -6.20892879       6.15047948       9.82085463       0.00085282      -0.00211390      -0.00064066      -2.03932711
C       -3.08542285       9.93910462       9.74353756       0.00035082       0.00228843       0.00079204      -8.89734586
H       -2.61946825      10.79672627      10.23708902       0.00151825      -0.00124595       0.00289343      -3.45025868
N       -4.30363082       9.59633398      10.11120436       0.00040077      -0.00069849       0.00231974      -8.67374898
H       -4.77816963      10.05595958      10.88555533       0.00377850      -0.00506829       0.00631463      -3.80460524
H       -4.79297798       8.81443271       9.67543321      -0.00156103       0.00471812      -0.00322852      -3.69374189
N       -2.41145507       9.29863510       8.81126190      -0.00195306       0.00551874      -0.00598107      -8.64178891
H       -2.80228049       8.48863580       8.31730225      -0.00301408       0.00655840      -0.00528776      -3.76367112
H       -1.48664868       9.60277580       8.51575715      -0.00425542       0.00765164      -0.00703196      -3.79099095
Pb       6.70123015      19.59995554      13.12441252      -0.00059914       0.00009314      -0.00031754      -4.64967490
I       10.01791945      19.52586144      13.09785316      -0.00103944       0.00022525       0.00057264      -1.94950365
I       19.55686867      16.57270562       0.00361340      -0.00087841       0.00036034       0.00243924      -2.00801805
I        6.65380508      19.68131898      16.37858270       0.00135937      -0.00516216       0.00005093      -1.93984252
C       10.28864537      22.78091930      16.07969903       0.00281060      -0.00058375      -0.00325826      -8.91479815
H       11.13615943      22.69961004      15.39286812       0.00400789      -0.00270164      -0.00168110      -3.44612586
N       22.24095295      17.21243029       2.72703439       0.00777381       0.00541288      -0.00323119      -8.71242863
H        9.06385557       4.57096346       8.37230934       0.01244945       0.00790434      -0.00172902      -3.81622775
H       21.43365739      17.33401069       3.33632239       0.00641545       0.00729241      -0.00505710      -3.64583460
N       10.31552120      22.09616279      17.20350760      -0.00318210      -0.00418376      -0.00536124      -8.70005012
H        9.54112014      22.12284636      17.86745499      -0.00373045      -0.00149425      -0.00639501      -3.67654880
H       11.09806076      21.48450863      17.41962249      -0.00633967      -0.00885272      -0.00565312      -3.79929219
Pb       6.84686845      19.55420377      19.62381603      -0.00075342       0.00110388      -0.00023246      -4.65271158
I       10.09617885      19.43977212      19.72344510       0.00037188       0.00329754       0.00449409      -1.97962710
I       19.89598683      16.52185585       6.28500656      -0.00183632      -0.00020078      -0.00381445      -2.01827604
I       -6.23578204      13.47664735       9.76743242      -0.00801040       0.00270430      -0.00038834      -1.96170880
C       10.09307721       9.45335732      -3.39981097       0.00216763      -0.00604376      -0.00061529      -8.91396184
H       -3.05574899      14.73369766       9.72520812       0.00908356      -0.00593202       0.00281055      -3.45018063
N       -1.64592587      16.25536002       9.83087195       0.00039727       0.00323608      -0.00527478      -8.68772697
H       -0.88822914      15.61398606      10.05542241       0.00443025       0.00775286      -0.00453567      -3.81450158
H       11.55062417      10.89422052      -3.24938939      -0.00620817       0.00345182      -0.00935991      -3.68521025
N        9.08156548      10.23400712      -3.71904844      -0.00338042      -0.01137609      -0.00051736      -8.72136154
H        9.20997350      11.22191696      -3.93771147      -0.00941702      -0.01217360      -0.00331208      -3.68176194
H       21.28147821      16.50327497       9.11682182      -0.00154117      -0.01827878       0.00411712      -3.77431737
Pb      13.20425951      13.11959424       0.03753913      -0.00014484      -0.00064204      -0.00072405      -4.64360263
I        3.46915240      19.57403336      13.07467432      -0.00068284      -0.00061463       0.00368868      -1.92491687
I       -0.34513914       3.24274044       6.44502301       0.00275604      -0.00004996      -0.00046181      -1.99724387
I       13.20015240      12.99833082       3.30278842      -0.00105541      -0.00175861      -0.00046642      -2.01203637
C       16.79389116      16.40793275       3.17766661       0.00513414      -0.00188837       0.00192928      -8.89521069
H       17.66105384      15.96218870       2.68022648       0.00725877      -0.00145671       0.00610880      -3.45345741
N       16.33063730      17.55189129       2.72104082       0.00425744      -0.00323315      -0.00407864      -8.59990720
H        3.52126950       4.80732742       8.39216249       0.00637919      -0.00588113      -0.00278153      -3.82939507
H       15.50450485      18.01152559       3.12147879       0.00288060      -0.00344970      -0.00643704      -3.75817527
N       16.27343679      15.77579636       4.20802334       0.00291090       0.00022995       0.00236865      -8.64685346
H       15.44690762      16.12516615       4.70392026       0.00119320       0.00167703      -0.00064838      -3.74462385
H       16.67045182      14.90211267       4.54713524       0.00262550       0.00266233       0.00593136      -3.79227817
Pb      13.18599151      13.13771331       6.55588970      -0.00029164       0.00010786      -0.00039818      -4.65718601
I       16.50945319      12.96895684       6.63022487       0.00015661      -0.00131759      -0.00238717      -2.04444625
I       13.23470813      16.45052544       6.28886414       0.00055755      -0.00077090       0.00126501      -2.02259285
I       12.85644138      13.32091099       9.77499594      -0.00025633      -0.00260151      -0.00013113      -2.00659651
C       16.42329035      16.50786619       9.96022307       0.00059686      -0.00099175      -0.00036382      -8.89697551
H       15.88397811      16.90930139      10.82269628       0.00170141       0.00036231       0.00020545      -3.45198877
N       15.91937483      15.46947495       9.32678421       0.00135191      -0.00219048       0.00309413      -8.65893981
H       15.05445775      15.02584184       9.63515314       0.00129336      -0.00310073       0.00536000      -3.82435800
H       16.41156526      15.00595467       8.56016060      -0.00006312      -0.00362379       0.00308432      -3.71016673
N       17.54784717      17.09439481       9.60131406      -0.00110482      -0.00056053      -0.00382003      -8.73534252
H       18.09301506      16.76327935       8.80565224      -0.00153303      -0.00144859      -0.00314721      -3.65849195
H       17.89432461      17.91560702      10.09195256      -0.00080532       0.00183944      -0.00577714      -3.78065358
Pb      13.14211766      13.12850369      13.01798493      -0.00117509       0.00031418      -0.00087268      -4.65309595
I        3.25901973       6.46960570      -0.41893502      -0.00127237       0.00068330       0.00106785      -1.94991378
I       13.16506525      16.40356372      12.99600749       0.00081738       0.00044435      -0.00456724      -1.98901481
I        0.13618240       6.62712634       3.21277980       0.00036212      -0.00091206       0.00049695      -1.93291034
C        3.15433019       9.76993441       3.37028816      -0.00548439      -0.00049187       0.00101744      -8.90648998
H        2.32039870       9.64368199       4.06734353      -0.00382578       0.00321133       0.00235694      -3.47399224
N        4.13599618      10.57749679       3.71654060      -0.00334184       0.00479478      -0.00006615      -8.70364229
H        4.13073758      11.06077181       4.61036234      -0.00609445       0.00739346      -0.00362799      -3.78716303
H        4.94375609      10.72951083       3.11249315      -0.00444880       0.00074833      -0.00073320      -3.67795876
N        3.12575288       9.11361293       2.23105006      -0.00242768      -0.00263851       0.00589995      -8.69160133
H        3.88816000       9.19094331       1.55506741      -0.00365681      -0.00500220       0.00414093      -3.71528312
H        2.35027071       8.49833549       1.99961589      -0.00276873      -0.00642732       0.00782080      -3.78279468
Pb      13.28273279      19.68290216      12.98756033      -0.00090238      -0.00063521      -0.00118799      -4.67258750
I       16.54635822      19.53185396      12.67193072      -0.00098845       0.00217846      -0.00150594      -1.94797112
I       13.37021609      22.94582934      12.93802097      -0.00261840       0.00036065       0.00163690      -1.97344042
I       13.27307830      19.70408718      16.25458239      -0.00285447      -0.00563918       0.00004551      -1.96985248
C        3.40704648      16.26573271       2.89520313      -0.00434835       0.00243700      -0.00656126      -8.90256560
H        3.77364329      16.73553618       1.97751045      -0.01083290       0.00275078      -0.00797445      -3.44908520
N       15.43081460      23.41546055      16.46859022      -0.00444597      -0.00435904      -0.00168297      -8.59454953
H        1.75668175      11.05326950      22.59721681      -0.01007498      -0.00715606      -0.00026905      -3.84408023
H        1.93335554      16.37145002       4.32378549       0.00188291      -0.00527211       0.00052673      -3.73253217
N        4.07377439      15.24468293       3.38709962       0.00547977       0.00500648      -0.00763431      -8.59200847
H        3.77679175      14.76669523       4.24682509       0.00943977       0.00375824      -0.00754562      -3.78055851
H        4.92516243      14.89938235       2.94917122       0.00379131       0.01117768      -0.01171641      -3.80083646
Cs       3.63117061      16.51494171       9.93330605       0.00183694       0.00198596      -0.00054963      -3.66616229
