233
Lattice="-12.957396986651146 6.351727325886291 13.017959588757243 13.11604327292129 6.668741413988977 13.017959588757243 13.195366416056363 13.17897578392661 -6.508979794378622" Properties=species:S:1:pos:R:3:forces:R:3:energies:R:1 energy=-1065.9006960384154 stress="-0.00012298674428719183 0.00033418647824232236 0.00023877567254075496 0.00033418647824232236 -0.0004597594340157475 0.00013079166731668984 0.00023877567254075496 0.00013079166731668984 -0.0001639423897780645" free_energy=-1065.9006960384154 pbc="T T T"
Pb      -6.48583584       6.44146140      12.96793198      -0.00201216      -0.00065361      -0.00001123      -4.63383836
I       -3.21750920       6.60547521      12.94304626      -0.00082818      -0.00248824       0.00280922      -1.91634739
I       -6.50216057       9.67693425      13.05704652       0.00087261       0.00039091      -0.00353487      -1.94604986
I        6.28747155      19.62515066       9.75938085      -0.00260484       0.00223632      -0.00055041      -2.05798406
C       -3.40101933       9.56861505      16.01863675      -0.00408203      -0.00193055      -0.00270307      -8.90538125
H       -4.19804485      10.05072119      15.44428408      -0.00406479      -0.00519173      -0.00542873      -3.46020197
N       -2.26818594      10.21895946      16.18721577      -0.00729851       0.00272180       0.00111270      -8.72553432
H       -2.10951600      11.12460219      15.75262136      -0.00963540       0.00314372       0.00119940      -3.78550412
H       -1.51570113       9.83487333      16.75974440      -0.00801283       0.00633158       0.00441749      -3.68425239
N       -3.62146296       8.36630592      16.51000973      -0.00083124      -0.00277167      -0.00350795      -8.67615516
H       10.31271236      21.01562634      10.46406948      -0.00001756      -0.00058403      -0.00231254      -3.69262423
H        8.67174983      21.08319021       9.88589960       0.00106275      -0.00591205      -0.00608360      -3.82444970
Pb       0.35018511      19.49305491       6.54976742      -0.00014110      -0.00160415       0.00192236      -4.64042823
I        3.49668396      19.65543528       6.23705143      -0.00089193       0.00556240      -0.00387108      -1.98687763
I       12.98469312       9.84962656      12.81673042       0.00087875      -0.00028812       0.01169318      -1.96277044
I       13.62014061      13.12957852      -3.22462039       0.00126975      -0.00432156       0.00139175      -2.03103544
C        3.56544156       3.29904421       3.39093232       0.00253584       0.00449686       0.00049207      -8.90695900
H        4.50369082       3.01012659       2.90706393       0.00181476       0.00401642      -0.00065249      -3.44277187
N        2.87520050       4.29013773       2.87047330       0.00306453       0.00573541       0.00176372      -8.58097186
H        3.20534711       4.79453834       2.04514482       0.00248633       0.00558103       0.00172463      -3.86223921
H        1.99730450       4.62460353       3.27896522       0.00331665       0.00565290       0.00246772      -3.72892965
N        3.18548592       2.63888632       4.46484604       0.00303247       0.00393875       0.00022236      -8.65458152
H        2.31207183       2.86024182       4.95378951       0.00380118       0.00469091       0.00162286      -3.75298306
H       16.91475955      15.02452771      -1.69864903       0.00286122       0.00369217      -0.00067660      -3.78495915
Pb       0.00326627       6.52513555       6.58421309      -0.00083910      -0.00077899       0.00219279      -4.66527574
I        3.32135928       6.32413734       6.81566136      -0.00029025      -0.00365989       0.00529224      -2.00279923
I        0.12232783       9.75400165       6.81163065      -0.00279879      -0.00069144       0.00126888      -1.97361416
I       -0.30570744       6.54817976       9.80905675      -0.00337901      -0.00595783       0.00085970      -1.95328249
C        3.29581843       9.92169439       9.77537341      -0.00210888       0.00358077       0.00041291      -8.87762425
H        2.50874999      10.48340815       9.26321171      -0.00292748       0.00645607       0.00487093      -3.46360860
N        4.41889111       9.68543740       9.12942341      -0.00533833       0.00260123      -0.00490567      -8.68137158
H        4.58529030      10.05852895       8.19816972      -0.00849332       0.00616607      -0.00428964      -3.78470130
H        5.13650125       9.06492967       9.51249509      -0.00431172       0.00155489      -0.00922190      -3.72845242
N        3.07162191       9.50592316      11.00468421       0.00207849       0.00111805      -0.00001508      -8.61393852
H        3.81195068       9.08160297      11.56520221       0.00331795      -0.00051673      -0.00304472      -3.71017012
H        2.18981314       9.69172187      11.48612038       0.00383101       0.00177104       0.00368238      -3.85218854
Pb      -0.03181050       6.55835335      13.06585120       0.00004060      -0.00113554       0.00119731      -4.65041739
I        3.38877121       6.28912824      12.95082357      -0.00008165       0.00180187       0.00105308      -1.97790587
I        0.33503409       9.83896156      13.37243503       0.00165469      -0.00066478       0.00144247      -2.02632136
I       13.15853046      19.92524841       9.83998851       0.00336272       0.00035978      -0.00036226      -1.96306139
C        3.64225084       9.80551612      16.43438533       0.00060282       0.00069858       0.00377563      -8.90413876
H        4.63646039       9.98723572      16.85059186      -0.00330572       0.00359024       0.01203090      -3.45206796
N        3.39251510       8.62605670      15.90380693       0.00920656       0.00209073      -0.00098620      -8.70670617
H       17.32717853      21.10785794       9.32936272       0.01350952       0.00438353       0.00205991      -3.80738791
H        2.45496883       8.36074011      15.60049988       0.01386421      -0.00065610      -0.01129228      -3.69046216
N        2.75328009      10.77551169      16.48363384      -0.00390755      -0.00358678      -0.00072012      -8.68807904
H        1.86483962      10.71434866      15.98777016      -0.00003543      -0.00584408      -0.00535303      -3.67899665
H        2.93468062      11.62568382      17.01300801      -0.01010999      -0.00291095       0.00300044      -3.81996283
Pb       0.20139132      12.98038794       6.64628475       0.00061277      -0.00101794       0.00030649      -4.63245583
I        3.42249715      12.81460898       6.61751433      -0.00025193      -0.00988549      -0.00431050      -1.94326998
I        0.62338610      16.21761514       6.74763642       0.00479897      -0.00097434       0.00173923      -2.03566895
I        0.50643575      13.01438975       9.87675811      -0.00029849       0.00049851       0.00007133      -2.02435365
Pb       0.23036207      13.10599917      13.13212306      -0.00210775      -0.00014207       0.00073035      -4.64204472
I        3.43683328      13.49418954      13.14274904      -0.00146381       0.00024002      -0.00248772      -2.00055934
I       -0.09133380      16.29168040      12.70756933      -0.00382856      -0.00076017       0.00222517      -2.03050739
I        0.05679680      13.27631834      16.33510836      -0.00119094      -0.00059530       0.00042687      -1.93993195
C        3.48464335      16.41442456      15.97537857       0.00194253       0.00042131      -0.00060174      -8.92868308
H        3.79549935      16.54557400      14.93564977       0.00609032       0.00305454       0.00101629      -3.45131491
N        3.06336033      17.46923466      16.63982202       0.00167047      -0.00123459       0.00136053      -8.74012071
H        3.00306661      18.37428158      16.18314138       0.00470111       0.00047211       0.00384967      -3.75534803
H        2.69559511      17.39531201      17.58757450      -0.00351756      -0.00381153      -0.00090233      -3.67892285
N        3.55411276      15.21047352      16.49914813      -0.00231395      -0.00165612      -0.00423052      -8.68266283
H        3.30676785      15.01166232      17.47014980      -0.00395184      -0.00378099      -0.00514719      -3.70413475
H        3.89481433      14.43142082      15.94161159      -0.00289408      -0.00052423      -0.00600302      -3.78277746
Pb       0.05069454      12.98921589      19.53609239       0.00026907      -0.00001911       0.00006541      -4.65420035
I        3.40964073      13.04183234      19.42266871      -0.00009683      -0.00015929      -0.00233599      -2.01839280
I       13.36950411      10.01355436       6.31909487       0.00273665      -0.00077232       0.00111887      -2.02930205
I        0.13521156      12.75707799      22.81800652       0.00060069      -0.00102794       0.00079886      -1.99871620
C        3.36007377      16.25574785      23.06237941      -0.00121255       0.00206804       0.00338506      -8.89614032
H        3.58596061      15.78605761      24.02452029      -0.00179101       0.00823212       0.00644188      -3.45897314
N        2.76792048      15.52623902      22.13869941      -0.00388092      -0.00265896       0.00893717      -8.69591984
H        2.50412460      14.56272807      22.32418603      -0.00727832      -0.00033034       0.01643133      -3.77270271
H        2.41746519      15.93421104      21.26931997      -0.00253554      -0.00793617       0.00599258      -3.71085746
N       16.66529304      11.16013741       9.85791576       0.00218926      -0.00030763      -0.00548869      -8.65660827
H       16.52312889      11.64034439       8.96548794       0.00162795      -0.00543078      -0.00805758      -3.72947353
H       17.06613551      11.70735083      10.61702897       0.00582396       0.00308070      -0.00997579      -3.80780794
Pb       6.68594372       6.52931857       0.02061035      -0.00290625       0.00113750       0.00068404      -4.65614854
I       -3.04392380      12.74776205      13.27755793      -0.00202144      -0.00031028      -0.00011644      -1.95968227
I        6.65380090       9.87935120      -0.17445919       0.00101662       0.00142319       0.00441355      -1.99522903
I        6.51436943       6.48213566       3.28947819      -0.00735795      -0.00064250       0.00038355      -1.99349122
C        9.93097141       9.84946801       3.61182469      -0.00428046       0.00054515       0.00210629      -8.92766088
H        9.95893494       9.39112575       4.60391311      -0.00095776       0.00258748       0.00517244      -3.46647856
N       11.04990658      10.33178094       3.11162725      -0.00381657      -0.00159717       0.00714268      -8.75345779
H       11.91503643      10.27657904       3.64184252      -0.00369189       0.00270525       0.00290584      -3.75042425
H       11.08015045      10.77204295       2.19194226      -0.00233590      -0.00046485       0.00214184      -3.68456828
N        8.78036130       9.88202094       2.97294939       0.00533815      -0.00066403       0.00168727      -8.75188029
H        8.69305592      10.25310545       2.02728878      -0.00206128      -0.00741826       0.00727146      -3.66381515
H        7.93900429       9.52042104       3.41328210      -0.00255019      -0.00346993       0.00604631      -3.76557003
Pb       6.62745414       6.48427839       6.50306305      -0.00076215       0.00077896       0.00076600      -4.66946089
I        9.84010222       6.78802633       6.48141438      -0.00030110      -0.00096618       0.00056813      -1.92893708
I        6.61587492       9.79820000       6.12457383       0.00287378       0.00008075       0.00002575      -2.00474956
I        6.85860868       6.86033399       9.78361938       0.00476882       0.01092393      -0.00088938      -2.03631918
C       10.06068173      10.02249730       9.81197679       0.00351697       0.00485468      -0.00111800      -8.91922006
H       10.91634055      10.67036801      10.02516110      -0.00386575       0.01403595       0.00009466      -3.43984091
N        9.85105580       8.98560569      10.59316272       0.01050784       0.00502240       0.00108132      -8.65295860
H       10.46148410       8.79789359      11.38463293       0.01064272       0.01266773       0.00335421      -3.78575163
H        9.05761907       8.35469386      10.44185143       0.01557431      -0.00072978       0.00233978      -3.75735823
N        9.28968120      10.32340442       8.78784758       0.00483192      -0.00615592      -0.00467675      -8.63470771
H        8.50044831       9.73719726       8.51959522       0.01160053      -0.01438557      -0.00600061      -3.65873479
H        9.48112684      11.14271631       8.20543926      -0.00061725      -0.00574518      -0.00657088      -3.88174574
Pb       6.62126084       6.56735154      13.03090276       0.00092281       0.00135455      -0.00182712      -4.65769065
I        9.91345948       6.53858391      13.33730498       0.00014558      -0.00018465      -0.00275604      -2.00150601
I        6.33954162       9.79705128      12.97985051       0.00098484       0.00125416       0.00454913      -1.93601958
I       19.89736776      19.92357423       9.77770032       0.00454842      -0.00449481      -0.00109719      -1.98529736
C       10.17591235       9.79094054      16.24434588       0.00739590      -0.00109340      -0.00201881      -8.89155418
H       10.95894214      10.26630655      15.64633196       0.01060017      -0.00580471      -0.00144678      -3.45212424
N        9.16681362      10.52675763      16.65911135       0.00681425       0.00280922      -0.01052360      -8.65602949
H        9.10249955      11.51419024      16.43024253       0.00977172       0.00147383      -0.01667238      -3.75168256
H        8.47374294      10.16986265      17.32689409       0.00452994       0.00786166      -0.01034462      -3.77128522
N       10.28369674       8.50399918      16.51170309       0.00429482       0.00027594       0.00554990      -8.68448084
H        9.61990737      14.50168262      -2.54175740       0.00173005       0.00390741       0.00538142      -3.67787937
H       -2.01234339       1.30434290       3.20272156       0.00496178      -0.00211703       0.01185175      -3.82860916
Pb       6.72136694      13.10723294       0.00614319       0.00210909       0.00135359      -0.00046181      -4.67200332
I        9.92793883      12.91458809       0.16920453       0.00082279      -0.00049459       0.00177683      -1.95419501
I        6.83173981      16.38277293      -0.18181246       0.00618791       0.00191055      -0.00548151      -2.03574852
I        6.63216809      13.42701940       3.24718897       0.00218305       0.00309835      -0.00096374      -1.96913423
C       10.25966231      16.37637292       3.07788561       0.00486427      -0.00025467      -0.00379805      -8.92478207
H       11.30219381      16.67514627       3.21757848       0.00541995      -0.00183410      -0.00422913      -3.44387401
N        9.44044281      17.23261439       2.50072293       0.00559052       0.00169757      -0.00155344      -8.68817631
H       -3.41749408       4.93794244       8.63495789       0.00655120       0.00241287       0.00034104      -3.80751383
H        8.47364554      16.99045175       2.29125168       0.00530897       0.00348103      -0.00172730      -3.67366275
N        9.87616548      15.19533979       3.51179980       0.00362332      -0.00031519      -0.00541250      -8.63278148
H        8.91670748      14.84907859       3.39947039       0.00329536       0.00079494      -0.00531187      -3.75587850
H       10.55392825      14.54946855       3.91050331       0.00355891      -0.00206609      -0.00748526      -3.79816794
Pb       6.59630028      13.09648448       6.46980564      -0.00044442      -0.00080882      -0.00083267      -4.63192625
I        9.93154912      13.19383517       6.63983406      -0.00102188      -0.00017656      -0.00269951      -2.01202225
I        6.46590695      16.33720833       6.67258648      -0.00805150      -0.00016881       0.00218994      -2.02940997
I        6.33111316      13.16831634       9.72724057       0.00063207      -0.00366637      -0.00101337      -1.94636362
C       10.07364164      16.30172151       9.47559702       0.00114638      -0.00167198      -0.00456417      -8.87766489
H       10.41128270      15.97326836       8.48822331       0.00125257      -0.00460579      -0.00358820      -3.46716746
N        8.79236715      16.55061604       9.65524381       0.00174461       0.00230017      -0.00655093      -8.62677641
H        8.13047935      16.44728519       8.88431134       0.00212262       0.00252471      -0.00702990      -3.82574741
H        8.39195918      16.64695124      10.59414869       0.00094291       0.00452721      -0.00714165      -3.74704463
N       10.97452302      16.44513870      10.42622458       0.00048943      -0.00239047      -0.00391730      -8.76959952
H       10.75757956      16.92503547      11.29883437       0.00090593      -0.00041613      -0.00492029      -3.67634292
H       11.93529615      16.15400526      10.28140109       0.00000723      -0.00488629      -0.00255487      -3.73932153
Pb       6.64938375      12.99273884      12.89950427      -0.00070637       0.00113489      -0.00023842      -4.64640257
I        9.90192894      12.89305182      12.81851030      -0.00117716      -0.00107743       0.00370759      -1.92250569
I        6.85900679      16.30447181      12.81741065       0.00023450       0.00095183      -0.00687007      -2.03199653
I        6.78028511      13.31102030      16.19031610       0.00135024       0.00430994      -0.00053374      -1.98613955
C        9.78407059      16.24628010      16.24747257      -0.00414167      -0.00079289       0.00163077      -8.90547675
H        8.81240761      15.94625063      16.65003451      -0.00182084      -0.00897423       0.00097593      -3.45180171
N       10.04759387      15.99201448      14.98196816      -0.00183433       0.00243280       0.00147037      -8.65582655
H        9.35740526      15.55169592      14.37830403       0.00196553      -0.00303202       0.00115102      -3.79839380
H       10.96958462      16.17970759      14.57518938      -0.00272190       0.00787521       0.00225687      -3.75457529
N       10.64271170      16.84003027      17.05291627      -0.00945945       0.00561418       0.00240901      -8.70700386
H       11.50584740      17.26233350      16.70371481      -0.01284213       0.01324973       0.00310576      -3.71116360
H       10.41630432      17.01947392      18.02586629      -0.01093537       0.00169792       0.00276842      -3.75264362
Pb       6.67751505      13.20728800      19.40442628       0.00056042       0.00117844      -0.00099118      -4.65280885
I       -3.19847804       6.73820358       6.42510498       0.00007056       0.00343214      -0.00130556      -1.94737187
I        6.68901974      16.42053951      19.56093937      -0.00008159       0.00151941       0.00558335      -1.98100390
I       -6.62840515       6.29982789       9.71680536       0.00207370      -0.00452599      -0.00031648      -1.99525512
C       -3.09829425       9.67573158      10.05545715      -0.00472555       0.00111019       0.00840654      -8.89972396
H       -2.66119606       9.16248332      10.91699813      -0.00910742       0.00497786       0.01285392      -3.45085428
N       -4.10289895       9.09668729       9.43197024      -0.00390949       0.00015525       0.00798422      -8.67992041
H       -4.46994245       8.19761186       9.73641902      -0.00722807       0.00268360       0.01152714      -3.79140429
H       -4.55764130       9.51769724       8.61753154      -0.00114659      -0.00244456       0.00511651      -3.72070385
N       -2.60132058      10.84240158       9.69370926      -0.00029286      -0.00234722       0.00349250      -8.66349989
H       -2.92769985      11.33220821       8.85460060       0.00272581      -0.00521462       0.00069471      -3.75592288
H       -1.80359156      11.25276642      10.17259011      -0.00156178      -0.00126770       0.00457528      -3.77379420
Pb       6.71801812      19.50783147      13.02027214       0.00058671       0.00081909      -0.00039256      -4.62188667
I        9.99205949      19.39060644      13.03162096       0.00104830      -0.00116563      -0.00395842      -1.99992847
I       19.90734497      16.44873592      -0.08023346       0.00042974       0.00063412       0.00518792      -1.91956117
I        6.57108461      19.54185827      16.26159605       0.00546243      -0.00521135      -0.00011181      -1.96927286
C       10.25236524      22.87697347      16.02853500       0.00456102      -0.00256824      -0.00342886      -8.91002657
H       10.96863078      22.94158260      15.20279102       0.00569794      -0.00468108      -0.00256647      -3.46465634
N        9.27305866      22.00187984      15.93914830       0.00711015      -0.00565603      -0.00064537      -8.68744399
H        9.17440399      21.40632640      15.12065255       0.01010493      -0.00974790       0.00200165      -3.79665235
H        8.55598685      21.92703523      16.66174978       0.00574268      -0.00344949      -0.00174421      -3.69264378
N       10.42299664      23.66906119      17.06472302       0.00078339       0.00315330      -0.00722400      -8.64732498
H        9.76217641      23.67863364      17.84332132      -0.00010949       0.00490085      -0.00802663      -3.69678358
H       11.18434164      24.34783857      17.07563814      -0.00048502       0.00465323      -0.00928422      -3.83106791
Pb       6.76650665      19.65312895      19.54067577       0.00042809       0.00162503       0.00016397      -4.66559431
I       10.02082340      19.58219328      19.66368938       0.00018754       0.00175235       0.00612274      -1.99131207
I       20.18725715      16.51690015       6.21468065       0.00027938       0.00128137      -0.00860403      -2.02131301
I       -6.19922395      12.97759562       9.78255654      -0.00537606       0.00510309       0.00045645      -1.97029581
C        9.79601197       9.74142389      -3.44675175      -0.00308168      -0.00163983      -0.00168250      -8.91985135
H        9.03819439       9.76528769      -4.23628099      -0.00056491      -0.00413742      -0.00420607      -3.44685154
N       -3.16046849      15.07617998      10.40644417      -0.00407608      -0.00017095      -0.00007023      -8.66597899
H       -3.87897106      14.35430567      10.34387555      -0.00331254      -0.00113691      -0.00084723      -3.84239278
H       -2.50588521      15.02729152      11.18714033      -0.00654000       0.00188988       0.00201344      -3.68134556
N       10.66386719      10.72839604      -3.38731772      -0.00477955      -0.00031171      -0.00055896      -8.62819078
H       -1.55245277      17.09797299      10.33396349      -0.00652544       0.00153272       0.00112278      -3.71014475
H       10.63822406      11.47648454      -4.08136003      -0.00447357      -0.00073733      -0.00125571      -3.84575635
Pb      13.19617505      13.22513610       0.06828198       0.00112949      -0.00082730       0.00150438      -4.61700147
I        3.46122704      19.15664526      13.21495397       0.00095739       0.00228098       0.00210416      -2.03718626
I        0.02168033       3.23927698       6.41707132       0.00111947      -0.00089358      -0.00082879      -1.96183496
I       13.23349192      13.54954295       3.29510279       0.00117848      -0.00195945       0.00118962      -1.97222667
C       16.37088066      16.23794779       3.38347165       0.00063617      -0.00417408       0.00509857      -8.92132664
H       16.41469780      15.40717752       4.09383917       0.00052862      -0.00279688       0.00672376      -3.44669519
N       17.29668406      16.31399072       2.44982092       0.00363176      -0.00306354       0.00819263      -8.67598547
H       18.03273695      15.61406946       2.39205445       0.00505836      -0.00180821       0.01110016      -3.80555575
H       17.28143903      17.04709057       1.73818880       0.00384060      -0.00452518       0.00672692      -3.70731188
N       15.39635659      17.11436077       3.50489189      -0.00223562      -0.00672302       0.00032456      -8.71338599
H        2.12237920       4.74079323       9.39286121      -0.00206660      -0.00774797      -0.00099454      -3.66626973
H       14.70278907      17.03003827       4.24530458      -0.00421774      -0.00736824      -0.00162584      -3.80877009
Pb      13.18188084      13.27833325       6.58365044      -0.00032854      -0.00089467       0.00092656      -4.67020753
I       16.45678187      13.39405740       6.78774589      -0.00015596       0.00359875      -0.00186987      -2.05058875
I       13.12343281      16.52623920       6.68420641       0.00171160      -0.00097436       0.00400334      -1.99306545
I       13.17135380      13.29193459       9.80349631      -0.00568348      -0.00923836       0.00076492      -1.97363784
C       16.24090949      16.54858198       9.60471999      -0.00357847       0.00239761      -0.00375864      -8.90313763
H       16.14638868      16.13002254       8.59927851      -0.00280828       0.00737083      -0.00609652      -3.45287135
N       16.01500692      15.75675320      10.63298234      -0.00692415      -0.00194863      -0.00815130      -8.74008851
H       15.68355282      14.80592547      10.50049125      -0.00838665      -0.00126055      -0.01364710      -3.79742311
H       16.03561592      16.10082960      11.58920632      -0.00839807      -0.00719803      -0.00650525      -3.62377679
N       16.59866386      17.80956147       9.73448993      -0.00120181       0.00052160       0.00273133      -8.67492506
H       16.66826141      18.25929010      10.64881721      -0.00272715      -0.00300815       0.00470438      -3.68146008
H       16.72329908      18.38891905       8.90152661       0.00119868       0.00424546       0.00539220      -3.83923491
Pb      13.09426066      13.06777325      13.06837989      -0.00029692       0.00091770       0.00254729      -4.64615680
I        3.37783709       6.46775280       0.01145070      -0.00213677       0.00180575      -0.00409285      -2.02348118
I       13.35875546      16.40197080      13.27412665      -0.00124526       0.00077271      -0.00259453      -2.00419777
I       -0.15370787       6.31721883       3.29669260       0.00190142       0.00400791       0.00169683      -1.97132606
C        3.34032009       9.92202323       3.28832360      -0.00306614      -0.00031355       0.00605755      -8.88938813
H        2.77738546      10.73494952       2.82125827      -0.00193768       0.00478516       0.01421471      -3.45094765
N        4.37741036       9.42211427       2.64895240      -0.00322030       0.00467016       0.00124643      -8.61789899
H        4.67875536       9.77929984       1.74324951      -0.00353093       0.01262159       0.00452124      -3.81453322
H        4.90250085       8.62000358       3.01426817      -0.00296606       0.00217500      -0.00510673      -3.76534776
N        2.94251902       9.47690037       4.46361179      -0.00354373      -0.01173089       0.00131560      -8.67910495
H        3.46552814       8.76301168       4.96982670      -0.00523971      -0.01785151      -0.00613571      -3.66414987
H        2.14106924       9.87844029       4.94979966      -0.00293011      -0.01467740       0.00550715      -3.82725688
Pb      13.25710913      19.67237608      13.09708538       0.00105651       0.00020472      -0.00151465      -4.66231559
I       16.52092665      19.84381237      13.17078515       0.00099510       0.00040431       0.00175458      -2.04278211
I       13.06059526      22.94618433      12.94059961       0.00003149       0.00046213      -0.00341471      -1.99001304
I       13.28191696      19.44688333      16.36841348      -0.00547171       0.00135851      -0.00041944      -1.99842215
C        3.38484544      16.47926119       3.36360789      -0.00045922       0.00184048      -0.00248819      -8.91431317
H        3.38294854      17.31427714       4.07125384      -0.00016582       0.00355860      -0.00410059      -3.45848311
N        2.68286916      15.40631934       3.65967827      -0.00318068       0.00470662      -0.00248258      -8.68961625
H        2.13815204      15.36448832       4.51979236      -0.00573556       0.00749783      -0.00284864      -3.82702780
H        2.64691274      14.59971773       3.03741663      -0.00411080       0.00330456      -0.00057351      -3.65368905
N       17.19867887      23.26885843      15.27153208       0.00242445      -0.00209862      -0.00088486      -8.69608803
H       17.25749406      22.50692658      14.59633659       0.00249653      -0.00300826       0.00082231      -3.67502088
H        4.54333866      10.93005186      21.59145704       0.00531761      -0.00297651      -0.00108602      -3.81003629
Cs       3.44639024      16.20491482       9.75237212       0.00069547      -0.00287777       0.00379295      -3.67679365
