233
Lattice="-12.957396986651146 6.351727325886291 13.017959588757243 13.11604327292129 6.668741413988977 13.017959588757243 13.195366416056363 13.17897578392661 -6.508979794378622" Properties=species:S:1:pos:R:3:forces:R:3:energies:R:1 energy=-1066.019874342228 stress="0.00016958973481819036 0.00020600318487225887 -6.481897190667354e-05 0.00020600318487225887 0.0001281036312997887 -0.00014343854996087542 -6.481897190667354e-05 -0.00014343854996087542 -7.915492980568089e-05" free_energy=-1066.019874342228 pbc="T T T"
Pb      -6.35625286       6.44868074      13.10524330       0.00068156      -0.00063870       0.00053557      -4.63177635
I       -3.11183930       6.61930604      13.30798698      -0.00026210      -0.00309977       0.00527987      -1.97114141
I       -6.35367101       9.75568596      13.30166041       0.00058580      -0.00034284      -0.00009100      -1.99768571
I        6.77402759      19.43120440       9.80617189      -0.00050656      -0.00274568      -0.00037716      -1.93267760
C       -3.03640905       9.61826650      15.97663787       0.00061635       0.00234588      -0.00056651      -8.88824543
H       -3.43078045       9.16765705      15.06100333       0.00073265       0.00391548      -0.00186760      -3.46388917
N       -1.93755068       9.11440278      16.49613291      -0.00101613      -0.00260644      -0.00008264      -8.63795590
H       -1.45017552       8.33840095      16.05301043      -0.00304406      -0.00278177      -0.00041298      -3.78844148
H       -1.51369552       9.49380398      17.35082114      -0.00048967      -0.00353788       0.00036483      -3.77286266
N       -3.68742238      10.63259796      16.50586740       0.00387216       0.00260010      -0.00080748      -8.65976776
H       -3.36150108      11.11037760      17.35003431       0.00392617       0.00138004       0.00051509      -3.72182062
H       -4.55016007      10.98030509      16.09365091       0.00465047       0.00609937      -0.00093176      -3.79470328
Pb       0.27625534      19.54707830       6.46241651      -0.00088110      -0.00147300       0.00177919      -4.63634565
I        3.49708239      19.48530652       6.67038413      -0.00044044      -0.00224398       0.00089485      -1.99877474
I       13.04290788       9.93170230      12.49482696      -0.00278663      -0.00163938       0.00282094      -2.01972382
I       12.82870633      13.69493057      -3.27682131      -0.00201615       0.00090297       0.00062223      -2.04762257
C        3.40697003       3.47168899       3.08045463       0.00027848       0.00234517      -0.00155754      -8.89798566
H        3.43146413       4.13679449       2.21293494       0.00145356       0.00261489      -0.00154792      -3.45353054
N        2.87956388       2.27267046       2.94899629       0.00137196       0.00216309      -0.00297077      -8.62724983
H        2.61495076       1.90017666       2.03909504       0.00323243       0.00209727      -0.00344401      -3.80281091
H       16.01369529      14.81739113      -2.75884417       0.00109163       0.00158245      -0.00325161      -3.73957724
N        3.88008649       3.91872475       4.22653370      -0.00215840       0.00256250      -0.00088165      -8.69721499
H        3.97418739       3.29950373       5.03082482      -0.00399659       0.00261966      -0.00038915      -3.66142511
H        4.29356537       4.84462029       4.29796679      -0.00305513       0.00280713       0.00028466      -3.81746228
Pb       0.05385231       6.40139740       6.45206055      -0.00054414       0.00035255       0.00064552      -4.65708231
I        3.33809757       6.72566659       6.71224392      -0.00065006      -0.00119445       0.00231942      -2.01972258
I        0.19108624       9.77301443       6.27386563      -0.00232956       0.00017197      -0.00097420      -2.05650172
I       -0.29695797       6.94305386       9.76415448      -0.00452186       0.00019206       0.00057851      -2.00427516
C        3.46859442       9.39051836       9.70494251      -0.00833769       0.00646541      -0.00404244      -8.89949634
H        3.63651173       8.40877280       9.25271627       0.00835905       0.00150142      -0.00316851      -3.47120674
N        2.45289697      10.10561323       9.27392339       0.00033685      -0.01847541       0.00442748      -8.65112746
H        1.84793194       9.77592314       8.52269824      -0.00491459      -0.01089653       0.00626550      -3.82686529
H        2.22273180      11.02082422       9.66534197      -0.01445766      -0.00698688       0.00912372      -3.68993546
N        4.29588497       9.79924360      10.64261230       0.00910304      -0.00051915       0.00220905      -8.64344867
H        4.12885214      10.66718547      11.16219594      -0.00458514       0.00543827      -0.00033272      -3.75397396
H        5.07580024       9.21706922      10.93849699       0.00044747       0.01383049      -0.00562900      -3.78057608
Pb       0.12634274       6.54751727      12.95985846      -0.00021430      -0.00075428       0.00036054      -4.66289823
I        3.38952112       6.38484057      12.70463314      -0.00089598       0.00008328      -0.00551446      -2.00666953
I        0.46917451       9.79597000      13.34945719      -0.00147341      -0.00069722       0.00062199      -1.99548705
I       13.62101222      19.27170599       9.70750168       0.00268693      -0.00079105       0.00024194      -2.03106306
C        3.58939723       9.84036431      16.34421516       0.00156218       0.00131676       0.00254784      -8.90473810
H        4.36160654       9.69767006      17.10563178       0.00475676       0.00653286      -0.00933814      -3.46209135
N        2.39358027      10.23769793      16.72914147      -0.00053623      -0.00908991      -0.00593091      -8.70098861
H        2.17487661      10.39330748      17.70845389       0.00293003      -0.01013514       0.00554958      -3.77660739
H        1.66570977      10.45935549      16.04841813      -0.00171606      -0.01241298       0.00619352      -3.70099254
N        3.88829196       9.59862276      15.08449586      -0.00460571       0.00234300      -0.01309871      -8.69560870
H        3.16843469       9.65378898      14.36187134      -0.00500428      -0.00344622      -0.00024748      -3.68840379
H        4.83613859       9.36221255      14.79479830      -0.00202819       0.01241416      -0.01086123      -3.80789216
Pb       0.21293439      13.07587720       6.48661494      -0.00089565      -0.00038455       0.00091418      -4.62462686
I        3.49943432      13.27257370       6.89908776       0.00044664       0.00181621      -0.00266241      -2.02077841
I        0.27066090      16.30422973       7.02101571      -0.00225003      -0.00074116       0.00499874      -2.04693602
I        0.03702714      12.80485559       9.72378763       0.00012876      -0.00180041       0.00121002      -1.94099656
Pb       0.23774833      13.06774593      12.87893793       0.00013137       0.00034873       0.00102253      -4.61483991
I        3.49681456      12.93471013      12.53948037       0.00005908       0.00249694      -0.00132108      -2.04857580
I        0.58899490      16.30651109      12.47568831      -0.00111724      -0.00025830       0.00041558      -2.00324567
I        0.04645673      13.14195382      16.23247629       0.00139148      -0.00349682       0.00132325      -1.95465132
C        3.56008916      16.10262367      16.39666631      -0.00133990      -0.00194704       0.00133004      -8.89474744
H        4.23789806      15.24858208      16.48935817      -0.00154255      -0.00215411      -0.00098928      -3.47489029
N        3.93647209      17.25709644      16.90545207      -0.00019410      -0.00250876       0.00207240      -8.69842240
H        4.81863489      17.34675822      17.40374912       0.00057305      -0.00383575       0.00133242      -3.81189247
H        3.31181055      18.06275195      16.89616412       0.00036376      -0.00239940       0.00406540      -3.67035395
N        2.42009997      15.93561152      15.75951290      -0.00259558      -0.00047476       0.00302364      -8.67182505
H        1.75619392      16.70716438      15.66074329      -0.00231367      -0.00017704       0.00534150      -3.72411280
H        2.11366586      15.01609305      15.45411804      -0.00373957      -0.00028085       0.00296351      -3.76622761
Pb       0.16647721      13.17597388      19.44564851       0.00033083      -0.00201336       0.00105562      -4.64556007
I        3.42180875      13.29229825      19.38679597      -0.00002376      -0.00191505      -0.00061532      -1.96946869
I       13.11276660      10.01393280       6.54132704       0.00030445      -0.00124008       0.00209652      -1.94147647
I        0.54166559      12.68263793      22.80209108       0.00288106      -0.00157864       0.00147036      -1.99521673
C        3.75504281      15.98430516      22.87918286       0.00090193      -0.00062057       0.00013414      -8.89658415
H        4.55311342      15.26995880      22.65291991      -0.00058786      -0.00363071       0.00304890      -3.46499313
N       16.75628742      10.27286656      11.01083530       0.00056431       0.00085816      -0.00137102      -8.66670658
H       -8.54125134       9.82402044      11.66146086      -0.00130470       0.00017651       0.00062240      -3.84834599
H       16.00545581      10.89447674      11.30874800       0.00271120       0.00584874      -0.00482467      -3.66535761
N       15.76005618       9.81395819       8.97055887       0.00365085       0.00015332      -0.00261175      -8.71581039
H       15.01213501      10.49279210       9.11352241       0.00447096       0.00189067      -0.00492579      -3.66479343
H        2.77974863      15.61997197      21.13025494       0.00410836      -0.00106611      -0.00161370      -3.80130556
Pb       6.57568808       6.62472722      -0.00783828       0.00076135      -0.00076976       0.00031954      -4.64215712
I       -3.03570391      13.00379671      12.91575963       0.00008261      -0.00192699       0.00120707      -2.03291778
I        6.30519826       9.90067114       0.30640409       0.00059576      -0.00067945       0.00279600      -2.04006083
I        6.41263435       6.62674922       3.29018437       0.00031511       0.00050938      -0.00019789      -2.06091411
C       10.25056805       9.69150204       3.15063598       0.00261771      -0.00208162      -0.00135801      -8.92024170
H       11.15585139       9.74811560       2.54155685       0.00290071      -0.00238340      -0.00032967      -3.43330742
N        9.30840848       8.84545938       2.79323192       0.00340033      -0.00041314       0.00178166      -8.63968637
H        9.43930693       8.22977567       1.98777117       0.00173440      -0.00207153       0.00263301      -3.87381779
H        8.45977607       8.71952319       3.34428899       0.00212705       0.00096259       0.00220841      -3.67158305
N       10.14835841      10.48493461       4.19668282       0.00481996       0.00291742       0.00000064      -8.67855455
H        9.33994891      10.44616450       4.82191185       0.00419630       0.00241922      -0.00098315      -3.72796395
H       10.91773632      11.08944005       4.46925792       0.00328616       0.00102816      -0.00356799      -3.79462352
Pb       6.70100893       6.68570785       6.61814893       0.00016555       0.00123460      -0.00064082      -4.65533487
I        9.88467426       6.60300522       6.45638141       0.00007120       0.00025890       0.00200463      -1.95606798
I        6.99033709       9.91467209       6.38214690       0.00122092       0.00017617      -0.00279171      -2.00985488
I        6.69416125       6.79446767       9.82901144       0.00152404       0.00381524      -0.00075966      -2.01453318
C        9.72936746       9.94518883       9.59172892       0.00149998      -0.00104685      -0.00170060      -8.91447649
H        8.88340814       9.90698510       8.89813415       0.00287538      -0.00012669      -0.00326927      -3.46166236
N       10.58496604      10.93768703       9.47636551      -0.00052603       0.00184877       0.00360225      -8.64980647
H       10.47401824      11.63800224       8.74263987      -0.00074089       0.00364641       0.00607502      -3.85304033
H       11.41403999      11.00475356      10.06868345      -0.00098556       0.00029358       0.00450922      -3.69008494
N        9.84532648       8.99433888      10.49495282       0.00215313      -0.00434389      -0.00537948      -8.67112385
H       10.58598505       9.02663408      11.19750900       0.00095765      -0.00527435      -0.00379149      -3.69910616
H        9.14374089       8.26153176      10.57489479       0.00358464      -0.00578255      -0.00935719      -3.80523111
Pb       6.69002479       6.54405773      13.15004386      -0.00129961       0.00076533      -0.00035384      -4.64922113
I        9.89693383       6.11265147      12.81601037      -0.00125966      -0.00053325      -0.00075015      -2.00753589
I        7.08543356       9.88883239      13.13990715      -0.00057726      -0.00003873       0.00197224      -1.96829211
I       19.77412719      19.83904409       9.83147180       0.00161214      -0.00836891       0.00003958      -1.92993300
C        9.56382964      10.06654897      16.18237235       0.00138791       0.00080387       0.00268246      -8.91625704
H        8.64585473      10.65695499      16.10454757       0.00387238       0.01030632       0.00702477      -3.46384197
N       10.60345216      10.43284934      15.46309365      -0.00268427      -0.00254104      -0.00512721      -8.70993007
H       10.55406913      11.24192274      14.84440612       0.00090971      -0.00422997      -0.00347009      -3.82371986
H       -1.63011064       3.25717432       2.49947557      -0.00458511      -0.01224874      -0.01119173      -3.64934310
N       -3.54196262       2.35773390       3.97024064      -0.00358247       0.00487448      -0.00086975      -8.66237473
H       10.47093010      14.92396564      -2.48411039      -0.00513203      -0.00226660      -0.00193194      -3.73561990
H        8.82477063      15.27763712      -2.00991378      -0.00165024       0.00830474       0.00560980      -3.78875223
Pb       6.60831001      13.14568635       0.08072362       0.00065296      -0.00116507      -0.00095819      -4.65709945
I        9.91351063      12.94495197       0.31300515       0.00086289       0.00083142       0.00085174      -2.00534802
I        6.67505813      16.41746760      -0.08015257       0.00119218      -0.00064540      -0.00230130      -2.04535265
I        6.72577022      13.28608956       3.31809717       0.00264510       0.00136270      -0.00020866      -1.96602696
C        9.56513382      16.39914133       3.04316233      -0.00213911       0.01318916       0.00140515      -8.94044791
H        8.59900605      16.38714801       2.53030288       0.00009900      -0.00149816      -0.00218713      -3.46299408
N       10.12552879      15.24719712       3.34908902       0.00386004      -0.00479379       0.00321545      -8.75308287
H        9.67024471      14.37105725       3.10766631       0.00745423       0.00466318      -0.00128973      -3.76126459
H       10.99046528      15.20670604       3.88666420      -0.00273076       0.00683045       0.00583374      -3.66614955
N       10.11148511      17.56390645       3.32236793      -0.01024921      -0.00572619       0.00468425      -8.73896394
H       11.03450054      17.63608287       3.75061824      -0.00854312       0.00685059       0.00827239      -3.68142742
H       -3.56875161       5.24828163       9.60262844      -0.01279521       0.00432229       0.00612670      -3.75917757
Pb       6.71696867      13.19789688       6.56868558       0.00110046       0.00080129      -0.00085017      -4.64150348
I       10.00678790      13.21049472       6.53776304       0.00070408      -0.00042729       0.00095556      -1.99881240
I        6.61760077      16.42132025       6.53109266       0.00410990       0.00010831      -0.00130585      -1.94818614
I        7.09164926      13.47329747       9.79243806       0.00254396       0.00258492      -0.00024606      -1.98882763
C       10.23689722      16.82981590       9.81943463       0.00104596       0.00190690      -0.00008094      -8.88913167
H       10.67702152      17.80691559       9.60024883      -0.00054901       0.00364936       0.00216032      -3.46154690
N       10.14884744      15.95143282       8.84247925       0.00167437       0.00553001      -0.00377318      -8.72210323
H       10.53968095      16.14343238       7.92403589      -0.00038000       0.00922647      -0.00303971      -3.78558349
H        9.60678523      15.09349977       8.94701300       0.00276675       0.00401507      -0.00571288      -3.68271575
N        9.82200857      16.58657747      11.04496492       0.00348611      -0.00228762      -0.00128464      -8.63772315
H        9.53136758      15.65347764      11.34214304       0.00451173      -0.00415962      -0.00360126      -3.69795960
H        9.88082537      17.30996681      11.76458219       0.00306595      -0.00493390       0.00134322      -3.85770705
Pb       6.73786202      13.15458147      13.00299019       0.00030718       0.00163617      -0.00082455      -4.63385580
I        9.99524180      13.38793129      13.08309035       0.00016109       0.00135866       0.00287091      -2.00097156
I        6.28693723      16.41205142      13.04731636      -0.00109843       0.00003889       0.00097657      -1.98958557
I        6.56940282      13.20982183      16.25455217      -0.00213839      -0.00140623      -0.00064182      -1.99104519
C        9.90819977      16.21581777      16.54383955      -0.00231053       0.00047503       0.00079494      -8.89172106
H        9.69095080      15.76071877      17.51451963       0.00074467      -0.00023322       0.00122549      -3.47329218
N        8.92466378      16.32625617      15.67466358      -0.00431052       0.00095766       0.00394231      -8.74734021
H        8.01648526      15.90821089      15.85291881      -0.00428524       0.00125863       0.00652497      -3.76344397
H        9.03315912      16.86690513      14.81779701      -0.00673950       0.00026201       0.00308284      -3.67189522
N       11.13491408      16.63053628      16.30977179      -0.00273238       0.00060763      -0.00234356      -8.64375531
H       11.45468365      16.87666086      15.37005226      -0.00620894       0.00354799      -0.00252255      -3.71146298
H       11.84542263      16.56852549      17.04112376      -0.00064767      -0.00016333      -0.00450765      -3.84382479
Pb       6.70714741      13.18531946      19.51190920       0.00012565       0.00016638      -0.00079707      -4.67390076
I       -3.16655177       6.44409889       6.24552005      -0.00050889       0.00007969      -0.00143213      -1.95023621
I        6.80801957      16.43812149      19.39339880      -0.00098655      -0.00013989      -0.00072935      -2.00846794
I       -6.25744085       6.53560118       9.77930142      -0.00213631       0.00207838      -0.00061855      -1.97983385
C       -3.30397912      10.06671279       9.75791304      -0.00152734       0.00039227       0.00017961      -8.91513429
H       -3.88863299      10.98643559       9.65978882      -0.00555118      -0.00076091       0.00475650      -3.47297830
N       -2.73383996       9.81185651      10.91662538       0.00157068      -0.00027686      -0.00212619      -8.70729073
H       -2.79821775      10.48148842      11.68185565       0.00170647      -0.00387077       0.00019655      -3.79910285
H       -2.19478960       8.95864111      11.06479526       0.00931197       0.00238338      -0.00814207      -3.67858698
N       -3.21013259       9.27243040       8.71277823      -0.00202328       0.00541780      -0.00253723      -8.71246936
H       -2.62301329       8.43738806       8.73219714      -0.00114920       0.00463352      -0.00565725      -3.70155008
H       -3.72453468       9.46795785       7.85795820      -0.00358859       0.00635911      -0.00089913      -3.77725535
Pb       6.70989913      19.66771444      13.03218811       0.00000438      -0.00030588      -0.00110909      -4.63353158
I       10.00503741      19.41526668      13.38517371      -0.00008383      -0.00355619       0.00094984      -2.06138394
I       19.92942780      16.56188965       0.05557177       0.00027669      -0.00015398      -0.00221808      -1.94393448
I        6.54533556      19.86408834      16.30582335      -0.00097759      -0.00194149      -0.00105024      -1.97358243
C        9.97543275      22.67492536      16.03188257       0.00088334      -0.00005141      -0.00163404      -8.91436958
H        9.94832060      21.95630524      15.20619403       0.00291393       0.00065215      -0.00266663      -3.46481232
N       11.00159712      23.49427156      16.11604111       0.00068191      -0.00109091       0.00238920      -8.65314941
H       11.74109403      23.47989782      15.41552644       0.00294466      -0.00033385       0.00457563      -3.83190933
H       11.05584967      24.20488851      16.84642885      -0.00120208      -0.00164031       0.00348101      -3.69098721
N        8.97889645      22.67471080      16.88997133      -0.00198065      -0.00066117      -0.00500339      -8.65055182
H       21.92721689      16.94349862       4.68260506      -0.00395720      -0.00166540      -0.00401042      -3.69696690
H        8.21031964      22.00982301      16.79793582      -0.00154392      -0.00065694      -0.00737033      -3.84658194
Pb       6.87438860      19.70537229      19.54115118      -0.00075128       0.00080969      -0.00115958      -4.66169608
I       10.09905177      19.50402442      19.31072436      -0.00030388       0.00220577      -0.00021457      -1.92770506
I       19.70401359      16.56526921       6.75541278      -0.00216483       0.00013914      -0.00458182      -1.90262034
I       -6.12103451      13.09100481       9.79269033      -0.00203878       0.00119172      -0.00043496      -2.02052326
C        9.60942827       9.86528423      -3.07559111      -0.00268599       0.00077863       0.00035148      -8.92140711
H        8.78518572       9.56013931      -2.42503100      -0.00245000       0.00427444       0.00106893      -3.43466027
N       10.18265892      11.03177975      -2.85797406       0.00172473       0.00123933      -0.00044142      -8.66057546
H        9.92655130      11.60575055      -2.05342822       0.00210334       0.00167918      -0.00071418      -3.85152446
H       10.93356706      11.38309723      -3.45105026       0.00097726      -0.00180523      -0.00055675      -3.66658782
N       -2.98004359      15.40489449       8.97404174      -0.00421982       0.00145208       0.00094464      -8.70962881
H       -2.19086670      15.62403744       8.36191502      -0.00512746      -0.00154795      -0.00004670      -3.71545056
H       -3.45783267      14.52112040       8.82057619      -0.00742803       0.00114970       0.00135107      -3.77479832
Pb      13.18157683      13.20483372      -0.01240381       0.00061659       0.00067011       0.00037602      -4.62372287
I        3.47436269      19.97340329      12.69341595       0.00005711       0.00085792      -0.00310752      -2.06202456
I       -0.01501456       3.24344027       6.85612808      -0.00051764       0.00016224       0.00115642      -1.88857782
I       13.47934513      12.79584091       3.22286532       0.00080283      -0.00149153       0.00071290      -2.04450985
C       16.67928964      16.23082308       3.23510395       0.00662034      -0.00121471      -0.00048579      -8.89815564
H       16.58010678      15.26181293       2.73988984       0.01138861      -0.00197923      -0.00000299      -3.44892542
N       17.17142446      17.23921575       2.54335577       0.00821007      -0.00132420       0.00330157      -8.71194868
H        4.33643620       3.92449191       8.11155436       0.01637322      -0.00090652       0.00559828      -3.80472344
H        4.15210812       4.96565191       9.48313404       0.00140487       0.00055739       0.00299897      -3.65153694
N       16.27690707      16.35078625       4.48225116      -0.00224503      -0.00214043      -0.00191303      -8.60683564
H       16.36588017      17.24076983       4.98915514      -0.00447045      -0.00226375      -0.00178690      -3.77610357
H       15.97085945      15.53596992       5.01084537      -0.00312171      -0.00234584      -0.00422241      -3.81641573
Pb      13.27421725      13.24221674       6.55424121       0.00011511      -0.00163422       0.00086297      -4.63678495
I       16.51156170      13.33399055       6.68018378       0.00003037      -0.00027907      -0.00029337      -2.02561340
I       12.84425043      16.47955553       6.00068376       0.00128087      -0.00035095      -0.00102990      -2.02553066
I       13.51087562      13.22297138       9.75800239       0.00194977      -0.00197761       0.00090328      -1.95392721
C       16.63926107      16.16245096       9.85667105       0.00406537      -0.00188250       0.00388144      -8.93438214
H       17.16996542      15.21075817       9.95394090       0.00582605       0.00201816      -0.00289193      -3.45648395
N       16.13816186      16.48032541       8.68194648      -0.00482748       0.00170137      -0.00129133      -8.69838161
H       16.24099998      15.84022608       7.89659430      -0.00281018      -0.00014010       0.00089872      -3.80134162
H       15.65045571      17.36381929       8.53374621      -0.00790958      -0.00573847       0.00579641      -3.67842133
N       16.53349280      16.93125718      10.91919693       0.00120132      -0.00122829      -0.00183163      -8.70202498
H       16.02059461      17.81304205      10.89478737       0.00141212      -0.00364046       0.00306946      -3.69793830
H       16.97128492      16.66688449      11.79815972       0.00688158      -0.00182609       0.00093752      -3.79431566
Pb      13.28218145      13.27276963      13.06373420       0.00026461      -0.00028130       0.00134646      -4.65548984
I        3.38346416       6.66074551       0.02119657       0.00030708      -0.00274322       0.00297480      -1.96919186
I       13.38512920      16.48309860      13.32850958       0.00312928      -0.00097136       0.00054098      -1.95224505
I        0.33461960       6.18277249       3.25259293       0.00091991       0.00334543       0.00120225      -1.90459652
C        3.06310412      10.09544827       3.48688895      -0.00045509       0.00097540       0.00160098      -8.88632164
H        2.18010529      10.33491112       4.08628258      -0.00042717       0.00122098       0.00206852      -3.47318995
N        3.69710194       8.97193919       3.73966004      -0.00337226      -0.00205799       0.00026740      -8.63605642
H        3.41018926       8.35810524       4.50267177      -0.00545576      -0.00236560      -0.00127597      -3.84165056
H        4.52042483       8.68169042       3.20970792      -0.00360450      -0.00240423       0.00042975      -3.69242286
N        3.43625734      10.94321328       2.55414073       0.00213637       0.00091755       0.00487117      -8.64816011
H        4.23165785      10.74769335       1.93999897       0.00207370       0.00084210       0.00417722      -3.74412000
H        2.90428273      11.79379161       2.38435665       0.00377141       0.00300882       0.00524723      -3.79840402
Pb      13.33779582      19.71790909      13.06720083       0.00080266      -0.00122167       0.00115091      -4.63607507
I       16.50956531      20.18646673      12.87656314       0.00056250      -0.00030205       0.00190001      -1.94886457
I       13.13673889      23.00488564      13.01239696      -0.00158486      -0.00138217       0.00045022      -2.06030426
I       13.61452776      20.00771672      16.23934698      -0.00054325      -0.00014125       0.00084238      -1.95086258
C        3.89230641      16.26103402       3.28799450      -0.00023268      -0.00051223      -0.00641291      -8.91238956
H        4.80695414      15.66283447       3.23495473      -0.00681355      -0.01038626       0.00099350      -3.47635247
N        3.22607105      16.28092256       4.42356337      -0.00667778       0.00151510       0.00263077      -8.72845805
H        3.55011603      15.75680958       5.23335482      -0.01133711      -0.00463581      -0.00264639      -3.78335583
H        2.35769352      16.80570005       4.51844376       0.00329942       0.00967992      -0.00184290      -3.65285117
N       16.62382974      23.58605624      15.23207570       0.00629140       0.00187699       0.00792039      -8.69384114
H       15.82157245      24.21948871      15.26044530       0.01202406       0.00915236      -0.00002066      -3.72061688
H       17.17097268      23.54638749      14.37625362       0.01074009       0.00121204      -0.00020162      -3.77364544
Cs       3.72733731      16.34300096       9.79500201      -0.00009167      -0.00141613      -0.00054671      -3.65265173
