233
Lattice="-12.957396986651146 6.351727325886291 13.017959588757243 13.11604327292129 6.668741413988977 13.017959588757243 13.195366416056363 13.17897578392661 -6.508979794378622" Properties=species:S:1:pos:R:3:forces:R:3:energies:R:1 energy=-1065.9637992380035 stress="-8.702837061634922e-07 0.0007682659154073525 -0.00030869864499700003 0.0007682659154073525 0.00014170062453307768 -0.00024263746333026058 -0.00030869864499700003 -0.00024263746333026058 -6.20375000967753e-06" free_energy=-1065.9637992380035 pbc="T T T"
Pb      -6.36981886       6.51945436      12.93124316      -0.00013394      -0.00122433       0.00012695      -4.63495592
I       -3.12665701       6.31688835      13.36357554       0.00021950      -0.00158479       0.00032325      -2.00016104
I       -6.32211346       9.76472596      13.01144150       0.00292149      -0.00129015       0.00166431      -1.95171368
I        6.71494746      19.41524501       9.70386765      -0.00441914      -0.00246405       0.00045557      -2.05703149
C       -3.07085855       9.50944574      16.11671159      -0.00107595      -0.00345984      -0.00169856      -8.89544517
H       -2.61362033       8.57843258      15.76982473      -0.00373368      -0.00318808      -0.00596944      -3.46164650
N       -4.38609199       9.57376609      16.19453384      -0.00063180      -0.00269257       0.00548029      -8.69324282
H       -4.95834972       8.76694342      15.95513565      -0.00236370      -0.00176250       0.00651743      -3.78353511
H       -4.86762765      10.46836580      16.31914048       0.00077890      -0.00232951       0.00798238      -3.72974290
N       -2.28187298      10.51502849      16.43751678       0.00146037      -0.00491680      -0.00367851      -8.72267039
H       -2.62811809      11.30621325      16.98632060       0.00523792      -0.00607917       0.00041869      -3.72067666
H       -1.27510263      10.43491185      16.33883008       0.00064094      -0.00493363      -0.01154447      -3.73877146
Pb       0.32419781      19.49477968       6.58811286      -0.00001285      -0.00023627       0.00001684      -4.64613666
I        3.57642244      19.52841310       6.32922461      -0.00056320       0.00465575      -0.00723000      -1.99780125
I       13.24906043       9.97488203      13.07483241      -0.00266568       0.00014175      -0.00070956      -2.00514281
I       13.69131384      13.18902327      -3.22724065       0.00003485       0.00246495      -0.00031279      -1.95975868
C        3.01240369       3.29477775       3.14489097       0.00075292       0.00270851      -0.00527066      -8.89079178
H        2.07114615       3.45889304       2.61147396       0.00549669       0.01027044      -0.01113384      -3.45908824
N        3.32206921       4.09552355       4.14045936       0.00122553       0.00093271      -0.00383266      -8.61879834
H        2.70944031       4.86603673       4.39643877       0.00554450       0.00550438      -0.00771052      -3.80033731
H        4.14410802       3.93074435       4.73213560      -0.00203659      -0.00377673      -0.00050699      -3.76955652
N       -9.17253157       8.65700982      15.76936118      -0.00553159      -0.00422138       0.00028689      -8.64335958
H       -8.29793614       8.43099090      16.24316394      -0.00968903      -0.01077496       0.00488921      -3.67554882
H       -9.43628604       8.04837536      14.99357917      -0.00579215      -0.00219054      -0.00126968      -3.84502933
Pb       0.19543624       6.68480813       6.45675541       0.00117575       0.00164773       0.00074300      -4.64888443
I        3.40760900       7.07031348       6.51878910       0.00041483       0.00069607       0.00174093      -1.95862716
I        0.05732891       9.85531469       6.09253506       0.00079338       0.00145609       0.00014471      -1.91655801
I        0.44544871       6.75642468       9.73168084      -0.00214147       0.00335778       0.00070964      -2.04235262
C        3.31672166       9.95145029       9.83987924      -0.00003746       0.00232966       0.00226440      -8.91900188
H        3.95263357      10.84120531       9.83662366      -0.00059484       0.00272031       0.00372379      -3.43168388
N        2.03164028      10.08887136       9.58741710      -0.00025753       0.00197549       0.00325746      -8.61734806
H        1.60555182      11.00325160       9.43672908      -0.00093125       0.00198661       0.00490930      -3.82863330
H        1.41649409       9.27002084       9.56146769       0.00009822       0.00171850       0.00234816      -3.74916361
N        3.86891402       8.77993898      10.08721702       0.00089083       0.00214405      -0.00051538      -8.70530823
H        3.30045066       7.93563188      10.13313351       0.00137910       0.00178202      -0.00173374      -3.66851326
H        4.85638368       8.69011060      10.31057947       0.00094160       0.00242040      -0.00070428      -3.79704057
Pb       0.10215356       6.57388789      13.00451875       0.00065001      -0.00018030       0.00130926      -4.64864932
I        3.39478789       6.45765257      13.01631484       0.00032970      -0.00189175      -0.00333584      -1.99432387
I       -0.00204621       9.84581994      13.31241807       0.00092319       0.00086432       0.00550566      -1.96798383
I       13.45375650      19.72939143       9.73075682       0.00078930       0.00030656       0.00113424      -1.97136653
C        3.77610102       9.73225422      16.31903893       0.00266158       0.00306679      -0.00135935      -8.89308160
H        4.72749216       9.19729105      16.39191816       0.00337944       0.00506494       0.00383961      -3.47745149
N        3.49251383      10.62998042      17.23863096      -0.00333287       0.00385562      -0.00401634      -8.68690045
H        4.12508137      10.78811370      18.02030830      -0.00719122       0.00653645      -0.00154470      -3.80265524
H        2.62186818      11.16004915      17.22429226      -0.00408798       0.00252164      -0.00907736      -3.67729563
N        2.98544869       9.45533186      15.30526290       0.00788854       0.00004784      -0.00456612      -8.65740986
H        2.06057157       9.87630771      15.20025780       0.00735158      -0.00206755      -0.00953983      -3.68361391
H        3.21444722       8.71072536      14.64647708       0.01231324      -0.00035104      -0.00250248      -3.83828358
Pb       0.17261805      13.07472066       6.46666342       0.00187391       0.00162159       0.00039682      -4.63947981
I        3.40078536      13.04065076       6.90367476       0.00084907      -0.00256502       0.00025044      -1.98297700
I        0.56282039      16.29810657       6.80166624       0.00546586       0.00063509       0.00715984      -1.97555741
I       -0.33862400      12.87923644       9.78373118      -0.00062833      -0.00011726       0.00057634      -2.05518340
Pb       0.19831194      13.08595699      13.08100226      -0.00039722       0.00148259       0.00065330      -4.62815731
I        3.50552791      13.45075604      12.77525333       0.00020667       0.00215274       0.00226842      -2.01546791
I        0.20855659      16.34115331      12.82936296      -0.00278808       0.00062367      -0.00169802      -2.04714508
I        0.51971267      13.38549652      16.33718162      -0.00165984       0.00240741       0.00084651      -2.00736442
C        3.48030962      16.30855925      16.12037787      -0.00105093       0.00316047      -0.00201602      -8.90191013
H        2.83736192      15.99476437      15.29257658       0.00034319       0.00971376      -0.00560283      -3.43527044
N        4.62875797      15.68842999      16.29118873      -0.00446898      -0.00282328      -0.00120031      -8.64160005
H        4.91407063      14.92225837      15.68725391      -0.00571924      -0.00072311      -0.00424365      -3.76897388
H        5.25763331      15.92569127      17.06639540      -0.00459616      -0.00708312       0.00034982      -3.77765447
N        3.06253511      17.28214822      16.90093484       0.00045409       0.00130840       0.00089809      -8.58525965
H        3.60833057      17.61689161      17.69671930      -0.00006329      -0.00368307       0.00342705      -3.69164049
H       15.14964305      11.43086896       3.68022606       0.00249253       0.00488608       0.00089384      -3.89486921
Pb       0.22311398      13.11095368      19.64437931      -0.00099577      -0.00116269       0.00057212      -4.65099836
I        3.42871419      13.28777121      19.93895399      -0.00081881      -0.00406946       0.00467710      -1.96228140
I       12.84606064       9.94566466       7.10336231      -0.00079608      -0.00070396       0.00254344      -2.01986137
I       -0.18212754      12.66921884      22.85894254      -0.00569423      -0.00422380      -0.00000341      -1.99155014
C        3.55829898      16.22235081      22.83242971       0.00278711      -0.00182970       0.00200378      -8.91187446
H        3.23510242      15.18165114      22.74232043       0.00533900      -0.00257159       0.00116724      -3.44518768
N       15.64700844      10.76070036      10.25510401       0.00018377      -0.00412748       0.00156504      -8.72047010
H       14.72658671      10.47994865      10.57997862       0.00053792      -0.00650753       0.00047026      -3.77246524
H       15.90661005      11.73524616      10.39886952      -0.00164098      -0.00394809       0.00399439      -3.67314006
N        4.78581434      16.53153259      22.47469998       0.00237682       0.00116156       0.00345616      -8.66016170
H        5.15702059      17.48286480      22.54539957       0.00001041       0.00207122       0.00365694      -3.72496855
H        5.43493972      15.80486878      22.17703818       0.00426605       0.00282950       0.00348380      -3.82371237
Pb       6.74755771       6.71775242      -0.03228158       0.00050798      -0.00108851      -0.00097651      -4.65316585
I       -3.00345221      13.10921533      13.25342953       0.00015241      -0.00089889       0.00072240      -1.91205482
I        7.08734187       9.96893717      -0.15860363      -0.00011777      -0.00097799      -0.00190758      -1.96594501
I        6.69370992       6.55085582       3.23969798       0.00056043      -0.00012857      -0.00017867      -2.02062805
C        9.65076529      10.00983904       3.17752828      -0.00265137       0.00006474       0.00123623      -8.91569794
H        8.60981555      10.27752375       3.37441550      -0.00136249       0.00482388       0.00178050      -3.45810624
N       10.16452038      10.31367220       2.00529265      -0.00181125      -0.00210142       0.00117550      -8.67862459
H        9.58786651      10.73316325       1.27965539      -0.00032058       0.00075915       0.00137520      -3.80052657
H       11.13880634      10.12479588       1.76269492      -0.00274743      -0.00568006       0.00084314      -3.70337594
N       10.33400868       9.41511897       4.13496057      -0.00515681      -0.00322652       0.00096522      -8.74804091
H       11.27025620       9.04469571       3.97223819      -0.00702043      -0.00813517       0.00022056      -3.66809336
H        9.89200520       9.19406967       5.02262038      -0.00582168      -0.00089458       0.00105582      -3.76294572
Pb       6.63087162       6.61753763       6.51381707       0.00091909      -0.00019591      -0.00046640      -4.65914936
I        9.88654483       6.38173054       6.33361268       0.00016649      -0.00397987      -0.00211142      -1.98439924
I        7.04777338       9.85366195       6.51872113       0.00352679      -0.00068464       0.00037360      -1.95002161
I        6.84956445       6.50708541       9.75321638       0.00129728      -0.00151143      -0.00018955      -1.99645784
C        9.71931283       9.86082672      10.05072303      -0.00024670      -0.00176734       0.00319144      -8.91576551
H        8.96173513       9.86072231      10.84133996      -0.00088580      -0.00162319       0.00260572      -3.46107521
N        9.64324478       8.93708817       9.11745210       0.00480685      -0.00627238       0.00742841      -8.64648435
H        8.89327468       8.24517241       9.12475669       0.00738168      -0.00909395       0.00949088      -3.84272129
H       10.31159824       8.90851271       8.34707657       0.00612304      -0.00706640       0.00849620      -3.68859574
N       10.65545686      10.78363685      10.08155719      -0.00463342       0.00293728      -0.00020018      -8.61675404
H       11.38268267      10.82432231       9.36365994      -0.00412074       0.00289278       0.00023103      -3.72497688
H       10.68303618      11.47099354      10.83417609      -0.00733530       0.00518322      -0.00242139      -3.83617778
Pb       6.62968596       6.61393798      13.04724630       0.00067883      -0.00121737      -0.00118346      -4.64723791
I        9.94453258       6.45657448      13.47405170      -0.00020987      -0.00138534      -0.00033685      -2.02181663
I        6.49371176       9.86582280      12.66555805       0.00026454      -0.00026461       0.00109259      -1.99808403
I       19.84440459      20.07166783       9.74565816      -0.00054195       0.00003306      -0.00053813      -2.00544036
C        9.96444655       9.66431616      16.40815130       0.00312202       0.00032386       0.00213419      -8.88217265
H       -3.54472904       2.41429860       4.22962098       0.00669202      -0.00117300       0.00239220      -3.47276661
N       -1.88953343       3.37461610       3.42980770       0.00126572       0.00788979       0.00156174      -8.69881807
H       -1.30783539       3.18665278       4.24637758       0.00222977       0.01111798       0.00176697      -3.81420544
H       -1.42318495       3.75458384       2.60561925      -0.00106242       0.00911221       0.00130729      -3.68726948
N        9.15837110       9.94894066      15.40654418       0.00161766      -0.00461794       0.00183150      -8.70597990
H        9.42066440      10.63208250      14.69121968      -0.00238304      -0.00395254       0.00157182      -3.73481443
H        8.20124379       9.60957477      15.39443170       0.00363670      -0.01104030       0.00206525      -3.74124014
Pb       6.73082043      13.20779624      -0.00501531      -0.00102104      -0.00104396      -0.00043972      -4.66972853
I       10.05151257      13.53356720      -0.03934614      -0.00131774      -0.00121602       0.00132436      -1.98341064
I        6.44094121      16.44947904       0.24994114      -0.00174628      -0.00109226      -0.00112197      -1.97203156
I        6.58862387      12.90790086       3.23318456      -0.00019681      -0.00155565      -0.00039188      -1.99583669
C       10.18888310      16.36542950       2.82100591       0.00104363       0.00000404      -0.00560851      -8.90982248
H       10.78323981      16.44387303       1.90545616       0.00264255      -0.00414390      -0.00492697      -3.46199476
N        9.55426936      17.43837465       3.25016757       0.00492819       0.00356168      -0.00863266      -8.71150694
H       -3.63502355       5.11565379       9.21272390       0.00889759       0.00210952      -0.01064375      -3.76340134
H        8.90242966      17.38371194       4.03443782       0.00356238       0.00770235      -0.00951185      -3.69972157
N       10.14776625      15.20720086       3.44297019      -0.00441158       0.00153504      -0.00334853      -8.69701783
H        9.71241387      15.09420966       4.35951200      -0.00696728       0.00518138      -0.00415494      -3.68263295
H       10.67453450      14.41049746       3.09007840      -0.00763421      -0.00138065      -0.00131529      -3.80531029
Pb       6.69940500      13.02595164       6.48005706       0.00118481      -0.00073301      -0.00013185      -4.61887861
I        9.91465952      13.17219296       6.53374619       0.00059703      -0.00034972      -0.00232674      -1.91983473
I        6.99759323      16.41681467       6.08811021       0.00281852      -0.00080366      -0.00324271      -2.05518859
I        6.69831993      13.45063320       9.70972671       0.00040483       0.00028722       0.00027439      -2.04325097
C       10.00343510      16.24534282      10.00011571       0.00053944       0.00025661       0.00134830      -8.92847168
H        9.96842507      15.45382096      10.75384087      -0.00104638       0.00157784       0.00276724      -3.43390058
N       10.99102117      17.11385472      10.05037499      -0.00067066       0.00076848       0.00205848      -8.67596430
H       11.68709597      17.06375519      10.79200329      -0.00190517       0.00240378       0.00382948      -3.83318602
H       11.06900241      17.87731856       9.37802911       0.00043648       0.00009432       0.00128976      -3.68605265
N        9.05951318      16.28038715       9.08509612       0.00256877      -0.00239325      -0.00126739      -8.64919277
H        9.04239550      16.99717699       8.35895264       0.00419438      -0.00418275      -0.00290413      -3.69107129
H        8.31310840      15.58509321       9.08462376       0.00308673      -0.00292604      -0.00153473      -3.84211136
Pb       6.71129698      13.12711074      12.95667071       0.00014540      -0.00004365       0.00131650      -4.62732652
I       10.03374793      12.87588865      13.13821656      -0.00010206       0.00099127       0.00420723      -2.04662942
I        7.03152827      16.36655554      12.99697606       0.00030277       0.00005331       0.00342290      -1.92063781
I        6.73396899      12.73063284      16.21371163      -0.00101051      -0.00042423       0.00075482      -1.93359960
C        9.89337044      16.44123739      16.59110400       0.00164432       0.01855170       0.00279853      -8.92147698
H        9.37743417      16.46481542      17.55455905       0.00872832       0.00744483       0.01035341      -3.47716778
N       10.31987684      15.27805938      16.14415795      -0.00416478      -0.01217888       0.00800206      -8.75166635
H       10.21186212      14.44032243      16.70875600      -0.00587791       0.00638912       0.00596183      -3.74026790
H       10.83866342      15.20313423      15.26940617      -0.01283516      -0.00405745       0.00199323      -3.69028064
N       10.04431123      17.57395216      15.93936680       0.00199520      -0.01090487       0.00874719      -8.74233659
H       10.51271000      17.61695606      15.03417109       0.00069168      -0.00227583      -0.00171143      -3.68141237
H        9.68683949      18.44266688      16.32754785       0.00800505       0.00639208       0.00416812      -3.76840238
Pb       6.69018911      13.12207078      19.43986400      -0.00087561      -0.00129742       0.00052194      -4.64019495
I       -3.12424315       6.51203839       6.48185160      -0.00038263       0.00163760      -0.00159915      -2.04097011
I        6.77744962      16.39951183      19.21312675      -0.00489237      -0.00129109      -0.00194406      -2.02231998
I       -6.29863691       6.74263093       9.69706731       0.00211724      -0.00036643       0.00047920      -2.02914807
C       -3.27712206       9.52531652       9.77794152      -0.00147740       0.00047124      -0.00108034      -8.89233124
H       -4.00997809       8.71392983       9.73881456      -0.00190379       0.00073951      -0.00058812      -3.47307729
N       -3.29800814      10.33383495      10.81497328       0.00443219      -0.00409160       0.00236613      -8.66252540
H       -4.01954274      10.24208923      11.53103359       0.00746223      -0.00605983       0.00510211      -3.83452029
H       -2.65791271      11.12533930      10.89326053       0.00432922      -0.00377853       0.00159981      -3.68613975
N       -2.41547867       9.63609554       8.78819511      -0.00682702       0.00420278      -0.00541268      -8.70170541
H       -1.72855468      10.39008318       8.76250541      -0.00636887       0.00395917      -0.00568706      -3.68763494
H       -2.42249370       8.97712767       8.01339120      -0.01037754       0.00681233      -0.00724556      -3.79588828
Pb       6.83401713      19.57019828      12.99276443      -0.00095308       0.00001028       0.00098320      -4.63997818
I       10.12032909      20.09845124      13.04737504      -0.00149964      -0.00154094      -0.00109943      -1.96068370
I       19.31719416      16.52580796      -0.06610225      -0.00313049      -0.00026145      -0.00059040      -2.04687823
I        6.79597243      19.77598960      16.21942973      -0.00077231       0.00376734       0.00020432      -2.01437312
C        9.93694996      22.69989157      16.27207858      -0.00015538      -0.00516034       0.00127637      -8.90901661
H        9.23584948      21.90494743      16.00106834       0.00347840      -0.01165119       0.01052653      -3.45312782
N        9.66742314      23.43338715      17.33258970       0.00462331      -0.00553142       0.00324465      -8.66084937
H       21.77040539      16.93391409       4.85295037       0.01009419      -0.01007485       0.01041304      -3.84513221
H       10.25838617      24.21843303      17.60566204       0.00035146       0.00048608      -0.00539564      -3.66793002
N       11.01185936      22.86835196      15.53483600      -0.01021351       0.00264539      -0.00990698      -8.64300743
H       11.68073062      23.62226666      15.73055646      -0.01176383       0.00546348      -0.01514291      -3.76049411
H       11.17680334      22.27559060      14.72417414      -0.01412254       0.00323953      -0.01188832      -3.78977608
Pb       6.77344141      19.65683107      19.52463997      -0.00033214      -0.00113746      -0.00018428      -4.65835848
I       10.00285623      19.67094388      19.18658475       0.00071631      -0.00066696      -0.00080292      -1.97054674
I       19.62685366      16.55481729       6.56534393       0.00251733      -0.00111355       0.00145133      -1.96337478
I       -6.09760672      12.88995029       9.72041384       0.00365115      -0.00059098      -0.00030380      -1.97425167
C       10.08661781       9.71494607      -3.23684746       0.00055425       0.00040411       0.00069259      -8.91786156
H       -2.78687756      15.18873478      10.42715347       0.00165877       0.00209252       0.00279258      -3.45495783
N        9.62302296       9.56019057      -4.45925457       0.00299156      -0.00335192       0.00032138      -8.66495980
H        9.56228501      21.66206158      21.19639568       0.00498570      -0.00477780       0.00216412      -3.80814255
H       22.63973336      17.03326516       7.93573250       0.00157316      -0.00505118      -0.00140811      -3.72233979
N       10.43940888      10.88853558      -2.75202755      -0.00296089       0.00240890      -0.00155028      -8.72779292
H       10.40741533      11.72291494      -3.33694203      -0.00441177       0.00095557      -0.00348802      -3.66108791
H       10.82966875      10.97974420      -1.81836710      -0.00521520       0.00564523      -0.00090096      -3.78652887
Pb      13.37041873      13.28049235      -0.01255206      -0.00033432       0.00045053       0.00004862      -4.62787896
I        3.61718730      19.21883500      13.00840756      -0.00137822      -0.00088489       0.00157514      -1.95514023
I        0.24193651       3.33421189       6.61509930       0.00061344       0.00097911      -0.00007322      -1.98834781
I       13.12928934      12.96827627       3.27340286      -0.00019513       0.00174206       0.00024628      -2.02598341
C       16.14059949      16.49331885       3.40126263      -0.00197077       0.00112372       0.00174118      -8.88668820
H       15.25320492      16.83359701       3.94388874      -0.00254980       0.00155227       0.00071535      -3.46492404
N       16.57207906      17.21272752       2.38672811       0.00107927       0.00273214       0.00408988      -8.66919946
H        2.89036236       4.88015686       8.61160744       0.00307855       0.00406709       0.00501277      -3.77575567
H       17.36370149      16.91891927       1.80575582       0.00086059       0.00190657       0.00413676      -3.74756792
N       16.71906233      15.37921502       3.79679087      -0.00473562      -0.00046214       0.00050383      -8.63161717
H       17.57996266      15.02634213       3.36758919      -0.00385270      -0.00060837       0.00190851      -3.73661784
H       16.39272578      14.87651905       4.62198914      -0.00686322      -0.00146388      -0.00096749      -3.82206967
Pb      13.11951852      13.24856865       6.59981677      -0.00021000      -0.00041958       0.00033246      -4.65085219
I       16.44596511      13.14984963       6.82158570       0.00024739       0.00027426       0.00220868      -2.00616935
I       13.21615215      16.47427981       6.28338065      -0.00166077       0.00018773       0.00013297      -1.96075510
I       13.10263283      13.56031681       9.80873746      -0.00112502       0.00098467       0.00022109      -1.99657485
C       16.55034574      16.95366990       9.66081324      -0.00025421       0.00275875      -0.00168847      -8.90481085
H       16.78532197      17.92182460       9.20902584      -0.00179992       0.00396155       0.00003342      -3.46438492
N       15.32763717      16.48342170       9.52763923       0.00038210       0.00145577      -0.00172693      -8.68085644
H       14.62397075      17.00462878       9.01080003      -0.00071670       0.00157060      -0.00021052      -3.79944808
H       15.07082243      15.53724164       9.81692639       0.00164166       0.00072618      -0.00299932      -3.71069354
N       17.50201465      16.31131700      10.30601628       0.00117239       0.00280701      -0.00363593      -8.68881671
H       17.28914886      15.48772989      10.87891111       0.00246124       0.00195623      -0.00445382      -3.75523324
H       18.42866362      16.71313600      10.40928760       0.00067217       0.00389003      -0.00364732      -3.73170245
Pb      13.30993983      13.27193539      13.05063313      -0.00018890       0.00143024      -0.00027093      -4.64726471
I        3.42438766       6.93484537      -0.31684066       0.00020667       0.00037558      -0.00409414      -2.01249524
I       12.79002792      16.50790433      13.32016871      -0.00182453      -0.00013734       0.00258388      -2.06894090
I        0.46886844       6.47129836       3.24282625       0.00366430       0.00341769       0.00009750      -2.00713347
C        3.43452689       9.46500288       3.17872799      -0.00028646      -0.00158580      -0.00081016      -8.89839985
H        3.08990016       8.44946740       3.39517027       0.00024823      -0.00130522       0.00181879      -3.46366935
N        4.71135575       9.74212287       3.32585041       0.00072398      -0.00229921      -0.00593574      -8.64000171
H        5.37122772       9.01128481       3.58901236       0.00123780      -0.00277209      -0.00863448      -3.81467324
H        5.08517183      10.69227983       3.22008188       0.00042588      -0.00231312      -0.00650474      -3.75555307
N        2.54140164      10.35603010       2.79653816      -0.00084608      -0.00185533       0.00178936      -8.73131134
H        2.81859144      11.26580364       2.42679266      -0.00188796      -0.00304400      -0.00229489      -3.68534470
H        1.56266530      10.10594067       2.69932696      -0.00170322      -0.00158923       0.00599092      -3.75227221
Pb      13.38275865      19.83559820      12.95163100      -0.00019144       0.00117330       0.00204274      -4.64429536
I       16.62074060      19.52929695      13.01749237      -0.00102753      -0.00238178       0.00105600      -1.92396354
I       13.55412817      23.02227316      12.53926407      -0.00003310      -0.00041312       0.00090684      -1.99110542
I       13.52763599      20.06149709      16.29047052       0.00342765       0.00747392       0.00107952      -1.99476342
C        3.59744222      16.50265430       3.27614531       0.00551239       0.00219659       0.00235195      -8.90389807
H        4.36005511      17.17797691       2.87684826       0.00791694       0.00292188       0.00791454      -3.44251212
N       15.66126296      22.90784401      15.54944633       0.00840911       0.00647995      -0.00285091      -8.62798325
H       15.54029762      23.33411097      14.63471517       0.01262838       0.01091322      -0.00124119      -3.77317134
H       14.98566560      22.18052404      15.81729506       0.00531412       0.00765201      -0.00734635      -3.78946730
N        3.77816099      15.99053140       4.47601827       0.00061406      -0.00244153       0.00097289      -8.62037019
H        3.05854558      15.44116064       4.94606938      -0.00124001      -0.00432723      -0.00392417      -3.68078256
H        4.62931920      16.19177141       5.00599902      -0.00111244      -0.00491319       0.00455560      -3.86993375
Cs       3.54893800      16.39429764       9.87707071      -0.00041986      -0.00032485       0.00093958      -3.63589168
