233
Lattice="-12.957396986651146 6.351727325886291 13.017959588757243 13.11604327292129 6.668741413988977 13.017959588757243 13.195366416056363 13.17897578392661 -6.508979794378622" Properties=species:S:1:pos:R:3:forces:R:3:energies:R:1 energy=-1065.709128910414 stress="-0.00011107912942626011 5.9650528500281156e-05 2.744628214025034e-05 5.9650528500281156e-05 -0.00035469317058463713 0.00010838562037238823 2.744628214025034e-05 0.00010838562037238823 -0.0004202713092146893" free_energy=-1065.709128910414 pbc="T T T"
Pb      -6.40857794       6.51173798      12.98042021      -0.00063618      -0.00009068      -0.00075440      -4.64141545
I       -3.14051585       6.52570401      12.88566317      -0.00090619      -0.00955780       0.00041483      -1.98504028
I       -6.39399815       9.70256677      13.02655940       0.01464794       0.00090949      -0.00884313      -1.91415727
I        6.70937990      19.63681451       9.77954395      -0.00379955       0.00284150      -0.00062885      -2.08449268
C       -2.97735195       9.46019481      16.26436379      -0.00035283      -0.00189140       0.00122329      -8.89808258
H       -2.51321302       8.48538592      16.08672158      -0.00009025      -0.00144360      -0.00029891      -3.46269085
N       -2.20632850      10.45058437      16.66949687       0.00087296      -0.00161333       0.00053911      -8.75036611
H       -1.21390685      10.31472470      16.82848936       0.00063938      -0.00141801      -0.00209735      -3.74121010
H       -2.59516274      11.34515472      16.96447632       0.00060163      -0.00255434       0.00325683      -3.66311318
N       -4.26950496       9.59661238      16.05675289      -0.00029432      -0.00203455       0.00406980      -8.63331806
H       -4.74308019      10.50208626      16.15076656      -0.00047206      -0.00206713       0.00500339      -3.76465416
H       -4.84568608       8.80494614      15.77893502      -0.00081384      -0.00216943       0.00490103      -3.80020063
Pb       0.32967083      19.57916306       6.51484604      -0.00185297       0.00029327       0.00003675      -4.62004384
I        3.54760021      19.49232350       6.70710775      -0.00120559       0.00556837      -0.00187054      -1.98079198
I       13.09835420       9.96605695      12.91951370      -0.00688089       0.00080835       0.00253514      -2.02048856
I       13.38933878      13.01748122      -3.25785979      -0.00126932      -0.00252522       0.00029270      -1.97416996
C        3.22910176       3.04047795       3.21193981      -0.00329276      -0.00233527      -0.00373985      -8.89899260
H        3.45052839       2.15686956       2.60532407      -0.00821149      -0.00424759      -0.00192374      -3.44962132
N        2.27606788       3.85259873       2.80251170      -0.00715782      -0.00341653       0.00107323      -8.65598585
H        1.75328113       3.66769534       1.94559233      -0.01227354      -0.00605025       0.00473534      -3.84888864
H        2.00826031       4.68056334       3.33436017      -0.00122016      -0.00062430      -0.00167703      -3.66914827
N        3.92796230       3.24647408       4.30812919       0.00482391       0.00230416      -0.01022952      -8.65696381
H        3.77738188       4.07392842       4.89546847       0.00702857       0.00210738      -0.01020739      -3.76499599
H       17.83221353      15.76460845      -1.89730370       0.00839214       0.00347600      -0.01441394      -3.76991877
Pb       0.13128505       6.48597656       6.56692647       0.00036784       0.00119057       0.00010584      -4.67353060
I        3.40852050       6.37131895       6.28077265       0.00047721      -0.00167529      -0.00061707      -2.00902767
I        0.01113493       9.81292375       6.88463712      -0.00233080       0.00093339       0.00430488      -2.01678043
I        0.39094355       6.40031254       9.85995010      -0.00066399       0.00005499      -0.00040208      -2.00851344
C        3.34671876       9.71205382      10.09983871      -0.00153525      -0.00066025       0.00257822      -8.89881444
H        3.11095051       9.46593591      11.13941974       0.00046814      -0.00289561       0.00240019      -3.45587866
N        3.26546064       8.75351350       9.20004801       0.00156930      -0.00155917       0.00159965      -8.77166788
H        2.89920410       7.83748863       9.44408374       0.00615880      -0.00236270       0.00155981      -3.78651056
H        3.53028399       8.90178393       8.23006089      -0.00074351       0.00112682       0.00152471      -3.60159375
N        3.71789279      10.94190536       9.80987058      -0.00746682       0.00030906       0.00300880      -8.66451672
H        3.80825265      11.27397254       8.84746113      -0.00847977       0.00148521       0.00292189      -3.69593057
H        3.77329315      11.64801508      10.54448482      -0.00925010       0.00016435       0.00341040      -3.82906605
Pb       0.12248978       6.58986888      13.14132062      -0.00023037       0.00031178      -0.00114824      -4.65545857
I        3.34908875       6.72245205      13.13042272      -0.00094303       0.00029533       0.00050663      -1.97158004
I        0.18137110       9.81789470      13.13612791      -0.00446755       0.00022478      -0.00142608      -1.91744261
I       13.00941533      19.58397247       9.84796097       0.00105533       0.00016778      -0.00083195      -1.99376394
C        3.47737451       9.70231241      16.02360720       0.00218551       0.00069201      -0.00595303      -8.90280220
H        3.95088572       9.35977264      15.09842445       0.00280504       0.00453717      -0.00635414      -3.45451816
N        3.82533203      10.87750800      16.50514905       0.00368479       0.00017457      -0.00070110      -8.63588512
H        4.56153009      11.43010543      16.06933589       0.00364985       0.00019176       0.00109985      -3.81660918
H        3.45357296      11.23965750      17.38704655       0.00198749      -0.00269784      -0.00115431      -3.71767355
N        2.58602927       8.92211401      16.59619194       0.00150480       0.00063685      -0.00893653      -8.69697007
H        2.09518845       9.19666283      17.45178561       0.00113043      -0.00253255      -0.00856595      -3.74556909
H       15.53186507      21.20370928       9.68223343       0.00095831       0.00175727      -0.01284565      -3.75591016
Pb       0.14340498      13.11952126       6.71041301      -0.00107315       0.00080383       0.00080997      -4.63621302
I        3.49516006      13.29375915       6.86847675      -0.00127111      -0.00499884      -0.00129024      -2.04017541
I        0.41352521      16.34435313       6.72537446       0.00170363       0.00066587      -0.00283134      -1.99204620
I        0.08759512      13.33862399       9.85221666       0.00162256       0.00480374       0.00007053      -1.94284359
Pb       0.13900080      13.07451807      13.10088211      -0.00077217       0.00097928       0.00063681      -4.64453437
I        3.45880812      13.21169480      12.82294454      -0.00103470      -0.00181409       0.00374201      -2.04397183
I        0.45695384      16.34865252      13.10125637      -0.00028652       0.00075534       0.00197708      -2.02415505
I        0.37064217      13.17651766      16.32420137      -0.00003268      -0.00212248      -0.00003693      -1.92164602
C        3.42559875      16.12224152      16.05795923      -0.00186113       0.00101904      -0.00583252      -8.91479179
H        3.18532135      15.33997368      15.33093018       0.01061349       0.00467763      -0.00999032      -3.45177483
N        4.49057238      15.96285733      16.81493238       0.00169597       0.00132541       0.00477506      -8.64471104
H        5.10094156      15.15496011      16.69748670       0.00272468       0.00333002      -0.00045912      -3.85141647
H        4.75954493      16.64545727      17.52501752      -0.00912886      -0.00481203       0.00544031      -3.67910298
N        2.63503185      17.17092696      16.13146249      -0.00056842      -0.00604238       0.00203521      -8.66710904
H        2.79106882      17.90464392      16.82778728      -0.01005361      -0.00824621       0.00304246      -3.72707718
H        1.82999135      17.25404793      15.51471398      -0.00314798      -0.00540974      -0.00455351      -3.79396756
Pb       0.30494125      13.05268597      19.52314397       0.00084821      -0.00093194      -0.00042604      -4.66564144
I        3.52336165      12.86573739      19.66938412       0.00053026      -0.00139290      -0.00131516      -1.97499812
I       13.39945652       9.93886495       6.44257182      -0.00128963      -0.00061531      -0.00132230      -1.96734189
I       -0.02112490      13.07862639      22.80942865      -0.00239206       0.00023030       0.00000981      -2.01482254
C        3.44566439      16.34992949      22.83632084      -0.00088837      -0.00292947      -0.00243324      -8.87875424
H       15.67634698      10.78364596      10.05016692      -0.00327120      -0.00448600      -0.00578808      -3.47021043
N        4.70607274      16.68489408      22.66092592      -0.00143933      -0.00049750      -0.00071784      -8.60869546
H        5.03931641      17.64665820      22.74905921      -0.00401289       0.00055707      -0.00255200      -3.84370035
H        5.41836573      15.96779100      22.50597319       0.00029066       0.00124418      -0.00010812      -3.72867126
N        3.02282219      15.10470206      22.73717401       0.00203241      -0.00479608      -0.00020041      -8.67799019
H        3.66221772      14.36316280      22.45301037       0.00533966      -0.00371423       0.00463044      -3.67072647
H        2.04317265      14.84640211      22.85269224       0.00295259      -0.00666580      -0.00169310      -3.82133378
Pb       6.59042357       6.56963033       0.03618222      -0.00100344       0.00125176       0.00018490      -4.65537966
I       -3.09426378      13.29591905      13.11384838      -0.00094741       0.00494214       0.00303870      -1.95776682
I        6.23716972       9.84718780      -0.13148680      -0.00332759       0.00111888       0.00066990      -1.97727628
I        6.81747195       6.43093549       3.26787499      -0.00128076      -0.00229826      -0.00004189      -1.99050564
C        9.95551482       9.91410207       3.14882211      -0.00128295      -0.00328404       0.00072215      -8.91039531
H       10.78648757       9.76375415       2.45517849      -0.00083078      -0.01057028       0.00172583      -3.44129709
N        8.72906302       9.97444824       2.66885193       0.00007856      -0.00094497      -0.00254161      -8.73260214
H        8.53194934       9.86838336       1.67734826       0.00102996      -0.00549012      -0.00161463      -3.77391862
H        7.93399167      10.15581923       3.28112613      -0.00044074       0.00674943      -0.00458314      -3.68126924
N       10.21151858      10.02893824       4.43769058      -0.00201545       0.00215837      -0.00133149      -8.70661458
H        9.45244839      10.16874018       5.10347560      -0.00223732       0.00880910      -0.00164732      -3.65993950
H       11.16063391       9.98466989       4.80937782      -0.00259560       0.00017258       0.00076315      -3.83451814
Pb       6.69607522       6.57767633       6.50825156       0.00012457       0.00007958      -0.00024191      -4.67364957
I        9.94794026       6.63661772       6.45823209       0.00022902      -0.00194143      -0.00076609      -1.98882331
I        6.49355948       9.86488611       6.06495538      -0.00333373      -0.00021748       0.00001150      -2.03364039
I        6.65111066       6.51644871       9.78043845       0.00184545      -0.00171447      -0.00004292      -1.98753482
C        9.73191642       9.61381206       9.76893350      -0.00319166      -0.00485868       0.00021683      -8.90072339
H        9.80640757       8.60808667      10.19177980      -0.00881372      -0.00571496      -0.00135695      -3.45815765
N        9.96930688       9.78130611       8.48648314       0.00148652      -0.00371932       0.00125393      -8.60987630
H       10.15623849       8.97576010       7.88722859       0.00085058      -0.00314769       0.00090166      -3.83332550
H        9.98621628      10.71423315       8.05515158       0.00370555      -0.00310483       0.00245749      -3.77289268
N        9.43068048      10.60893160      10.58135132      -0.00164749      -0.00500717       0.00176362      -8.74273593
H        9.21634313      11.54006255      10.22744377       0.00514051      -0.00299159       0.00254761      -3.65895334
H        9.20235066      10.43145249      11.55441625      -0.00545439      -0.00573731      -0.00015099      -3.75534055
Pb       6.58047877       6.72897012      13.07146994       0.00050497      -0.00062407       0.00061263      -4.67143551
I        9.89074850       6.88851369      12.93071202      -0.00106836       0.00119616       0.00342324      -2.01845362
I        6.60747016       9.94394030      13.04589217      -0.00061736       0.00037942       0.00245077      -1.94503564
I       19.61739857      19.83077777       9.78331735       0.00079585       0.00038456       0.00019645      -1.89866454
C        9.96180052       9.80818314      16.46214673       0.00372822       0.00137837       0.00777721      -8.90185678
H       -3.38275864       3.56854991       4.42341495       0.00555146      -0.00038538       0.00960275      -3.44599846
N        9.76369145       8.52101835      16.27179689       0.00006922       0.00479708       0.00367473      -8.65378393
H        9.55247706      14.42565913      -2.48755807      -0.00150907       0.00200118       0.00188715      -3.81259637
H        9.85388322       8.09206047      15.34402880      -0.00057131       0.00609976       0.00227018      -3.76267603
N       10.40503485      10.61518853      15.51289954       0.00561275       0.00522990       0.01050254      -8.73649905
H       10.80922631      10.24331118      14.65195240       0.00567622       0.00632726       0.00957738      -3.69774087
H       10.58648374      11.59415754      15.70807056       0.00999789       0.00255130       0.01486272      -3.73834405
Pb       6.59102941      13.08003087      -0.04790109       0.00059478       0.00024049       0.00063239      -4.67572543
I        9.89919618      12.84058612      -0.15207776      -0.00022468      -0.00104592       0.00104787      -1.95040815
I        6.95771207      16.39114699       0.03659637       0.00513113       0.00033003      -0.00129834      -1.97149356
I        6.50136595      13.03651628       3.27846445       0.00009278      -0.00174195       0.00030726      -1.96998008
C        9.80387724      16.37151159       3.32061623      -0.00133911      -0.00118359       0.00236949      -8.91599281
H        8.97456251      17.02250568       3.60964590      -0.00255182      -0.00225090       0.00424753      -3.44439415
N        9.55508381      15.10816720       3.04596566      -0.00055049      -0.00114418       0.00357054      -8.63675202
H        8.60958054      14.72252850       3.07645491       0.00034583      -0.00296071       0.00477546      -3.84441968
H       10.31836421      14.45697827       2.84786753       0.00055538      -0.00041335       0.00226363      -3.72355418
N       11.01932349      16.88425824       3.27094854      -0.00370897       0.00121953      -0.00026213      -8.73752429
H       11.79444953      16.34601064       2.88509520      -0.00262868       0.00265480      -0.00230015      -3.67552432
H       11.20013214      17.85890582       3.49217726      -0.00434836       0.00148875      -0.00034807      -3.75725111
Pb       6.72033304      13.16542297       6.51995796      -0.00102506      -0.00098188       0.00032635      -4.63444922
I        9.99781823      13.01215844       6.75122270      -0.00079293      -0.00188498       0.00404087      -1.99220902
I        6.71821536      16.37761832       6.35152482      -0.00757838      -0.00002459       0.00236368      -2.02110305
I        6.77969056      13.41061696       9.74582767      -0.00288757      -0.00363762      -0.00010936      -1.97269647
C        9.95914651      16.51670939       9.54138740       0.00149063       0.00460833      -0.00224590      -8.92568918
H       10.00739966      17.13335500       8.63818980       0.00448148       0.00835095       0.00051164      -3.43813604
N        9.20819650      16.93181003      10.54192787      -0.00552695      -0.00266302      -0.00528587      -8.66740545
H        8.64028343      17.77403096      10.45700778      -0.00750279      -0.00329305      -0.00463990      -3.83584393
H        9.10354408      16.37763974      11.39171388      -0.00706651      -0.00526918      -0.00740251      -3.66772324
N       10.66462553      15.40718019       9.58714857       0.00493880       0.00666027      -0.00257507      -8.63355883
H       10.60523944      14.77792483      10.39337136       0.00354912       0.00377197      -0.00543005      -3.75638669
H       11.23325770      15.11036148       8.79894620       0.01165765       0.01284888      -0.00034399      -3.80190177
Pb       6.69778869      13.22421252      12.92908383      -0.00003176       0.00058338      -0.00059168      -4.63444360
I        9.96263464      13.60315434      12.76455449      -0.00060868       0.00323051      -0.00524693      -2.01029052
I        6.47198047      16.43521310      13.10104970      -0.00603663       0.00052938      -0.00533222      -1.97547799
I        6.79116404      13.02715125      16.22531034       0.00159633       0.00374709      -0.00038433      -2.09134924
C       10.04010280      16.49894664      16.17796235       0.00251112       0.00342421      -0.00031264      -8.90238940
H        9.38860087      17.15087771      15.58958781       0.00561283       0.00147127      -0.00553937      -3.45312240
N       11.18988980      16.97994461      16.60480772       0.00123498       0.00365217       0.00212179      -8.69831734
H       11.48389778      17.93316362      16.39992437       0.00290275       0.00266457      -0.00012660      -3.81125873
H       11.83439664      16.40561800      17.14776610      -0.00177248       0.00559330       0.00782008      -3.68090572
N        9.64661695      15.26588998      16.42600751      -0.00016774       0.00438704       0.00312916      -8.64934189
H       10.21554609      14.63058120      16.98662928      -0.00345780       0.00659507       0.00869295      -3.70942565
H        8.74652411      14.90925811      16.10989568       0.00080100       0.00454362       0.00147089      -3.81731556
Pb       6.82281270      13.12570027      19.56592488      -0.00000561       0.00007974      -0.00031421      -4.65237120
I       -3.09038118       6.46905535       6.61226957       0.00049267       0.00628491       0.00221609      -1.93437672
I        6.90566095      16.43681044      19.46890148      -0.00178515      -0.00026756       0.00321759      -1.94806526
I       -6.46554066       6.78368868       9.74301573      -0.00009516      -0.00209459      -0.00008756      -2.01636009
C       -3.19049342       9.75608077       9.80806529      -0.00521834      -0.00002847       0.00447949      -8.92512095
H       -4.06002979       9.74255276      10.47250256      -0.00505115       0.00019740       0.00442190      -3.43741240
N       -2.09635912       9.13100937      10.19379371      -0.00591850      -0.00238614       0.00318595      -8.68916542
H       -2.06521028       8.62617470      11.07602676      -0.00682032      -0.00371268       0.00269316      -3.80638887
H       -1.27809842       9.07557807       9.58742916      -0.00615254      -0.00252685       0.00348602      -3.67771402
N       -3.27786287      10.40277096       8.66520192      -0.00387447       0.00217038       0.00547402      -8.65311954
H       -2.49554095      10.42367281       8.00672726      -0.00431952       0.00174784       0.00541133      -3.73197115
H       -4.13968621      10.85853617       8.37935405      -0.00352027       0.00370573       0.00623206      -3.79847826
Pb       6.80332062      19.65155031      13.13042883      -0.00162490       0.00066109      -0.00037512      -4.63737760
I       10.01755023      19.54414491      13.35550236      -0.00087776      -0.00067683      -0.00479470      -1.93779128
I       20.12351736      16.55768087       0.03974268      -0.00083011       0.00009298      -0.00080357      -1.93921619
I        6.81483100      19.71226780      16.31175071       0.00201439      -0.00241380      -0.00058122      -1.97045967
C       10.02677583      22.48615334      16.22114133      -0.00711971      -0.00865116       0.00029645      -8.90907456
H       10.17257311      21.42153089      16.01714988       0.00135639      -0.00441224       0.00448940      -3.47068036
N       21.78717575      16.54221430       3.56613902       0.00588128      -0.00285092      -0.00445283      -8.67533891
H       21.03053711      15.86344487       3.64180257      -0.00005668      -0.00360330      -0.00106537      -3.80257726
H       21.52644977      17.53229278       3.59737531       0.00097464      -0.00282110      -0.00616680      -3.71989378
N       11.06461832      23.28744041      16.10361264       0.00991373       0.00055823      -0.00610590      -8.75823489
H       11.01723626      24.27927875      16.33059279       0.00062705      -0.00637157      -0.01176551      -3.64727283
H       11.95559770      22.93645311      15.76790679      -0.00169980      -0.00615588      -0.00029480      -3.76000386
Pb       6.83617715      19.67445012      19.51509922      -0.00175928      -0.00072412      -0.00055975      -4.65069556
I       10.07277487      19.93650393      19.41650440      -0.00137878      -0.00015733       0.00356584      -1.89051565
I       19.88100595      16.59976734       6.91160302       0.00151473      -0.00003855      -0.00250322      -2.03534031
I       -6.31627208      12.92562259       9.77260003      -0.00617594       0.00414723      -0.00040723      -2.01004133
C       10.07967790       9.86568520      -3.17855640      -0.01205338       0.00250014      -0.00798714      -8.91625033
H       -1.99064941      16.04532225      10.45481158       0.00535770       0.00623373       0.00316659      -3.44408489
N        8.92744147       9.38235578      -2.76384327       0.01713720      -0.00451934       0.00707432      -8.71361728
H        8.87267263       8.83457345      -1.90771180       0.00636029      -0.00059001      -0.00231441      -3.81178905
H       21.20208506      16.12701320       9.68367237       0.00037376      -0.00957647      -0.00212742      -3.67163958
N       10.21034240      10.55973334      -4.29100461       0.00876302      -0.00446775       0.00692054      -8.68269505
H       22.53519322      17.37658163       8.10076803      -0.00525524      -0.00639863      -0.00458004      -3.69227821
H       -1.83206427      17.22046971       8.40789561      -0.00745983       0.00148627      -0.00097674      -3.80878416
Pb      13.13073979      13.22681903      -0.08210764      -0.00019662       0.00145792       0.00095179      -4.64819302
I        3.48832336      19.73196823      13.07216869      -0.00149758       0.00328516       0.00187520      -1.99557333
I       -0.11459931       3.29127958       6.40760758      -0.00492696       0.00128328      -0.00041598      -1.90844220
I       12.86260782      13.40938707       3.23765291       0.00223637       0.00324340       0.00107541      -2.04665665
C       16.39662435      16.73027484       3.29139391      -0.00259827       0.00360166      -0.00064373      -8.89216073
H       16.74944042      17.61827195       3.82186699      -0.00106296       0.00945312      -0.00581198      -3.43302067
N       15.25041869      16.19274129       3.65900789       0.00813299       0.00384043       0.00491626      -8.66077036
H       14.70240070      16.58218742       4.42426897       0.00541835       0.00259973       0.00614023      -3.82369608
H       14.88347663      15.34142523       3.22934068       0.00604702      -0.00175967       0.00918348      -3.71142550
N       17.13166458      16.24407792       2.31243670       0.00038450       0.00616262      -0.00295931      -8.65646487
H       16.83940794      15.42595276       1.76574134      -0.00121723       0.00311616      -0.00045643      -3.76592037
H       18.00832582      16.68225724       2.03979025      -0.00513679       0.00747590      -0.00735819      -3.78047894
Pb      13.31920039      13.13637243       6.53487664      -0.00154574      -0.00095742       0.00083043      -4.64977426
I       16.51533961      13.02275646       6.08435506      -0.00136187      -0.00471535      -0.00066330      -1.97859174
I       13.24196785      16.43908430       6.85924142       0.00277278      -0.00023748       0.00076715      -2.05029591
I       13.58860598      13.06733884       9.76208950       0.00159951      -0.00133324       0.00101033      -1.96937412
C       16.84846154      16.61193215       9.75838983       0.01056631       0.00239193      -0.00757770      -8.93473370
H       17.90181880      16.73509026      10.02372070       0.00668375       0.00471997      -0.00634782      -3.46366004
N       16.54514328      16.32504983       8.51059103       0.00225321       0.00108444       0.00191238      -8.64055771
H       17.28805438      16.27375862       7.81428810       0.00241471       0.00006060      -0.00378531      -3.79924128
H       15.57540430      16.29284330       8.17704879       0.00279227       0.00009000       0.00133934      -3.75376662
N       15.95326863      16.74129769      10.71390067       0.00434189       0.00439952       0.00437264      -8.77325571
H       14.95854196      16.61866032      10.54158349       0.01158482       0.00381540       0.00359273      -3.62337770
H       16.22647621      17.00876243      11.65458251       0.01272351       0.00457962      -0.00266432      -3.77365507
Pb      13.23952623      13.27897716      12.97828968      -0.00059230       0.00086325       0.00041474      -4.65297470
I        3.33969087       6.46392423       0.12560930      -0.00025841      -0.00187557       0.00469165      -1.95866109
I       13.27814838      16.47074739      13.09299088       0.00328782       0.00073568      -0.00392411      -1.96723366
I       -0.08810384       6.78311575       3.32082532       0.00088272       0.00414517       0.00037111      -2.01899246
C        3.08791750       9.86811925       3.06298245       0.00136723       0.00086378      -0.00131710      -8.90867377
H        2.17152654       9.83806809       2.46674098       0.00672086       0.00420157      -0.01146675      -3.47261851
N        3.88645748       8.82243155       3.03269674      -0.00172479       0.00145418       0.00359573      -8.69399001
H        3.70268922       8.04216002       2.40177125       0.00398636       0.00168321       0.00184033      -3.82956979
H        4.73174355       8.77839525       3.60137267      -0.00506900      -0.00059974       0.01149223      -3.66923516
N        3.32631182      10.94036276       3.79140803      -0.00726362      -0.00019047       0.00311478      -8.69684928
H        4.21058592      11.05979057       4.28659319      -0.01217693      -0.00355926       0.01462788      -3.69358375
H        2.69009746      11.73465232       3.76269781      -0.00521691      -0.00031511      -0.00040071      -3.79395070
Pb      13.25579072      19.69560344      13.07454348      -0.00011202       0.00111391      -0.00180463      -4.67136559
I       16.50149415      19.75562842      13.14466657       0.00010397       0.00486592       0.00160327      -1.89578274
I       13.53699436      22.96564368      13.00979962       0.00305097      -0.00000954      -0.00462701      -2.04123834
I       13.40887455      19.95677858      16.35799243      -0.00258773       0.00429741      -0.00120424      -2.06883706
C        3.59184064      16.28016942       3.00099749       0.00342080      -0.00348849      -0.00400517      -8.90110924
H       16.25117134      22.98275825      15.02607861       0.00462672      -0.00870708      -0.00368338      -3.45066551
N        2.82494968      15.97132964       4.02867089       0.00307395      -0.00083589      -0.00208708      -8.71382451
H        1.85457717      15.70339044       3.89875087       0.00408487      -0.00393967      -0.00263825      -3.79255209
H        3.20794372      15.83938762       4.96234241       0.00249489       0.00500103      -0.00214576      -3.64746960
N        4.86789427      16.57611900       3.12175581       0.00326429      -0.00041049      -0.00310350      -8.62631072
H        5.34632638      16.53477578       4.02836357       0.00219325       0.00228297      -0.00310126      -3.75199086
H        5.44226247      16.74533883       2.29425267       0.00319025      -0.00222990      -0.00351691      -3.83609071
Cs       3.45131206      16.42381155       9.88638784      -0.00081570      -0.00045652      -0.00186988      -3.66910702
