233
Lattice="-12.957396986651146 6.351727325886291 13.017959588757243 13.11604327292129 6.668741413988977 13.017959588757243 13.195366416056363 13.17897578392661 -6.508979794378622" Properties=species:S:1:pos:R:3:forces:R:3:energies:R:1 energy=-1066.1788774236509 stress="0.00012976602271551742 0.0004004562150822646 -5.114159344857243e-05 0.0004004562150822646 0.00014361858054191546 -5.350985594213498e-05 -5.114159344857243e-05 -5.350985594213498e-05 -8.159501949529634e-05" free_energy=-1066.1788774236509 pbc="T T T"
Pb      -6.51227255       6.42251179      13.03176882       0.00027820       0.00003127      -0.00126849      -4.63565364
I       -3.23704629       6.18013274      12.81976811       0.00003704      -0.00202332      -0.00103064      -2.00235411
I       -6.32439061       9.72346418      13.23886301       0.00138338      -0.00009248      -0.00152281      -2.05169894
I        6.89496575      19.22028051       9.74217432       0.00002423       0.00169417      -0.00089485      -2.00020191
C       -3.46927532       9.60448536      16.23473877      -0.00219555      -0.00155253       0.00197651      -8.88954172
H       -4.48218707       9.81346935      15.87799336      -0.00144687       0.00196872       0.00190931      -3.45450214
N       -3.07549770      10.14948069      17.36599468      -0.00070437      -0.00343605       0.00234191      -8.65737310
H       -3.71063609      10.71503373      17.92269267       0.00108595      -0.00152259       0.00242959      -3.78538828
H       -2.13492677      10.01538990      17.74734475      -0.00100704      -0.00597100       0.00214497      -3.73709759
N       -2.69704030       8.82773344      15.50209120      -0.00465738      -0.00370162       0.00176202      -8.65892736
H       -1.78197577       8.50733537      15.83259506      -0.00571051      -0.00699358       0.00179646      -3.73277571
H       -3.04343190       8.39494449      14.64816100      -0.00589361      -0.00199505       0.00142476      -3.79000044
Pb       0.13812355      19.64317003       6.50016559       0.00037769      -0.00045385       0.00029067      -4.62955951
I        3.42183783      19.69959110       6.63259994       0.00011155      -0.00137748       0.00012463      -2.00548601
I       13.10394826      10.08235265      13.09845417       0.00142609      -0.00025837       0.00034592      -2.00791256
I       13.08279604      13.07203987      -3.24083312      -0.00200350      -0.00264936       0.00036478      -2.04264124
C        3.32120116       3.46412726       3.54322952       0.00071841       0.00267040       0.00102653      -8.88271561
H        2.75164767       3.18535512       4.43480713       0.00227967       0.00139289       0.00160752      -3.46215122
N        4.41863056       2.79166272       3.26267650      -0.00150460       0.00102389      -0.00357683      -8.68450526
H        4.96558885      21.55329935      10.36004114      -0.00165577      -0.00118936      -0.00642726      -3.76780623
H       -7.96634664       9.36216246      15.46027639      -0.00241728       0.00262843      -0.00378022      -3.73754830
N        2.87136604       4.45395960       2.80155379       0.00110523       0.00571919       0.00492617      -8.66036067
H        3.36972413       4.79413956       1.97535632      -0.00050516       0.00661435       0.00429652      -3.70539994
H        2.02550378       4.96300445       3.05427589       0.00261156       0.00657662       0.00816801      -3.82030043
Pb       0.10056710       6.60220006       6.47521333      -0.00121043      -0.00054893       0.00051069      -4.66513669
I        3.34500737       6.64915151       6.32002456      -0.00096600       0.00018990      -0.00017799      -1.93960032
I       -0.00983096       9.83692361       6.70932641      -0.00128632      -0.00051485       0.00205112      -1.97008803
I        0.25071847       6.48561749       9.73446296       0.00094725      -0.00163414       0.00027843      -2.03308423
C        2.94508315       9.72402151       9.64733519       0.00048603      -0.00114700       0.00047567      -8.91739685
H        1.91671281       9.78142199       9.27898378      -0.00096720      -0.00024456      -0.00006278      -3.46545783
N        3.53844647       8.54833982       9.66034623      -0.00094795       0.00161427      -0.00148953      -8.74645744
H        3.04935306       7.72214146       9.32851654       0.00010934      -0.00012729      -0.00346460      -3.76220134
H        4.51283644       8.43369202       9.94092910       0.00018343      -0.00042850      -0.00216844      -3.68254293
N        3.52691415      10.83306994      10.05127485       0.00128186      -0.00351799       0.00275870      -8.71458137
H        4.46443302      10.83448444      10.45370072      -0.00272978      -0.00121258       0.00211047      -3.68264557
H        3.01993223      11.71554169      10.03222820      -0.00239670       0.00067493       0.00340826      -3.78994031
Pb       0.06933206       6.56440882      12.98343027      -0.00105401      -0.00028267       0.00031342      -4.64625006
I        3.28132473       6.35587845      12.96335908      -0.00019545      -0.00102981      -0.00010777      -2.00348147
I        0.07573002       9.76360304      12.65896878      -0.00316127      -0.00064484      -0.00324223      -1.90805846
I       13.51912404      19.96483251       9.73628072      -0.00229553       0.00291801       0.00032735      -2.02311759
C        3.33827182       9.47658700      16.15539044       0.00315727      -0.00384788      -0.00011727      -8.89699696
H        2.95854702       8.50982242      16.49694932       0.00830145      -0.00572423      -0.00013892      -3.46494716
N        3.45477964       9.68250714      14.86011472      -0.00335208      -0.00146810      -0.00079453      -8.68861252
H        3.23986997       8.93782015      14.19853658      -0.00348459      -0.00147760      -0.00066587      -3.80336846
H        3.66522329      10.60846358      14.47628835      -0.00715660      -0.00059725      -0.00010116      -3.73285935
N        3.65530880      10.37917191      17.06249130       0.00365832      -0.00395980      -0.00090725      -8.74321972
H        4.17123208      11.22574051      16.81336953      -0.00064121      -0.00174707      -0.00156520      -3.71520390
H        3.51665505      10.20166884      18.05036404       0.00953364      -0.00622333      -0.00004394      -3.70381317
Pb       0.16010911      13.11552792       6.56782506      -0.00084778      -0.00056604       0.00056556      -4.63581132
I        3.39006936      13.15169282       6.34115115      -0.00053961       0.00006468       0.00022618      -1.95455539
I        0.28883179      16.39570176       6.48047571      -0.00187101      -0.00058071       0.00033482      -2.00024448
I        0.63570479      13.36296049       9.75820620       0.00053704       0.00086955       0.00054737      -2.03633682
Pb       0.22308786      13.00739680      13.05398686       0.00068053      -0.00058186       0.00031359      -4.63870275
I        3.47610487      13.10661474      13.26142286       0.00028236      -0.00207663       0.00108450      -1.97923688
I        0.49699471      16.30820097      13.15539127      -0.00024210      -0.00113678       0.00293098      -1.96561408
I        0.17362065      12.88189837      16.27019397       0.00179524      -0.00572361       0.00019679      -1.88930330
C        3.68172133      16.32454697      16.09783280       0.00579205       0.00416575      -0.00125166      -8.88714504
H        4.06797717      15.80638065      15.21493611       0.01347049       0.00932937      -0.00080156      -3.47072429
N        3.28322483      17.57301598      15.96573117       0.00888634       0.00560727       0.00273669      -8.70761272
H        3.32658168      18.04251248      15.06245589       0.01612392       0.01004688       0.00558489      -3.80244799
H       15.94727141      11.78065300       3.74932369       0.00484097       0.00217039       0.00358263      -3.69378795
N        3.63616781      15.66376451      17.23597812      -0.00573886      -0.00290132      -0.00630491      -8.72919957
H        3.17196949      16.04697753      18.06051676      -0.01449693      -0.00847752      -0.00861576      -3.68959375
H        4.02678751      14.72826984      17.30513969      -0.00726175      -0.00381649      -0.00907611      -3.76235815
Pb       0.14697356      13.11689063      19.50276149      -0.00025249      -0.00152475      -0.00023794      -4.65799005
I        3.42503710      12.67040276      19.96832694      -0.00084786      -0.00229221      -0.00147263      -2.04151645
I       13.78991122       9.96178626       6.72091120       0.00267101      -0.00085054      -0.00168521      -2.04980339
I       -0.18740094      13.22651168      22.78538726       0.00113596       0.00012564      -0.00000241      -1.94455669
C        3.72692526      16.37871424      23.15313752       0.00166174      -0.00006203       0.00061756      -8.92066993
H        4.46772191      16.39205207      23.95872898       0.00158503       0.00010124       0.00071473      -3.44662520
N        3.75154533      17.35071929      22.26635602       0.00074167       0.00063493       0.00137130      -8.66901385
H        4.45232095      18.09020406      22.32147579      -0.00003918       0.00130948       0.00191396      -3.84050833
H       16.04959408      11.02943449       8.46970814       0.00120338       0.00018460       0.00093881      -3.69481626
N        2.86056160      15.38792724      23.11888444       0.00269034      -0.00091164      -0.00019410      -8.67722702
H        2.13503424      15.33101058      22.40347520       0.00270043      -0.00103110      -0.00021921      -3.68200085
H        2.87271999      14.66731769      23.84074890       0.00312023      -0.00128523      -0.00058218      -3.82813677
Pb       6.72151080       6.63914598      -0.04566213       0.00048575       0.00045569       0.00004250      -4.65555163
I       -2.98219519      13.18063382      12.73391551       0.00067940       0.00422553       0.00115723      -1.96706568
I        7.08374321       9.90860483       0.09055133       0.00052900      -0.00010469       0.00393986      -2.00815035
I        6.65831567       6.73159670       3.18874720      -0.00092190      -0.00244173      -0.00009365      -1.95452582
C        9.97132967      10.03308047       3.68367761      -0.00103920       0.00141830       0.00411748      -8.93081080
H       10.12840245       9.76074034       4.73068534      -0.00503001       0.00665101       0.00598213      -3.45440111
N       10.09349264      11.29664071       3.34117065      -0.00057779      -0.00013009      -0.00131568      -8.65815170
H       10.24516811      12.00268214       4.05949408      -0.00322924       0.00295747      -0.00393871      -3.78823554
H       10.01325021      11.61937937       2.37175665       0.00082883      -0.00417815      -0.00271345      -3.74823899
N        9.68908436       9.06995046       2.83093231       0.00308436      -0.00289466       0.00776822      -8.75601853
H        9.40289916       9.26456326       1.87141086       0.00842789      -0.00821549       0.00527228      -3.68542821
H        9.57389789       8.11555173       3.15722483       0.00271471      -0.00131197       0.01228893      -3.72894485
Pb       6.59058824       6.71938498       6.40564876      -0.00059774       0.00006771      -0.00046036      -4.66679519
I        9.88462224       7.09996620       6.24841025      -0.00051496      -0.00075486      -0.00187253      -2.00025150
I        6.40140278       9.92236719       6.37817435      -0.00025563       0.00011856      -0.00146615      -1.91456595
I        6.88278256       6.71793233       9.70493830       0.00016053       0.00294550      -0.00015294      -2.03303372
C       10.07136146      10.14166522       9.79236176      -0.00009568       0.00259678       0.00061591      -8.90710314
H       11.01210566      10.54207262       9.40330523      -0.00076873       0.00456017       0.00117720      -3.43915475
N        9.96765896       9.91933789      11.08613545       0.00164295      -0.00291700      -0.00009030      -8.63034317
H       10.76491437      10.07489862      11.70586989       0.00234109      -0.00490437      -0.00052883      -3.84009521
H        9.06120965       9.71694449      11.51976218       0.00228781      -0.00459867       0.00016309      -3.74463045
N        9.09019602       9.90377172       8.94368384      -0.00102939       0.00560297       0.00091455      -8.73720277
H        8.28035843       9.34506569       9.21358952      -0.00074159       0.00463384      -0.00031502      -3.69245315
H        9.17742329      10.13620445       7.95995313      -0.00258855       0.01059525       0.00196148      -3.75132987
Pb       6.57798152       6.61610472      13.03272640       0.00054161       0.00023506      -0.00026426      -4.64921980
I        9.78738700       6.71209615      13.38463535      -0.00005097       0.00125227      -0.00087771      -1.98815876
I        6.52606846       9.88309538      12.52515465       0.00103265       0.00016375       0.00072013      -2.00468027
I       19.56179232      19.77972331       9.75753708       0.00042351      -0.00178270      -0.00022008      -1.93173269
C       10.19578706      10.01385490      15.98635930       0.00156069       0.00110239      -0.00022840      -8.88876129
H       10.90898321       9.78370436      15.18935321       0.00337474       0.00146094       0.00155210      -3.47606978
N        9.52562618      11.14469452      15.90835652       0.00299628       0.00264113      -0.00078457      -8.66641148
H        9.67865829      11.79141384      15.13207528       0.00525659       0.00247211       0.00033061      -3.84415591
H        8.89651072      11.45061876      16.65047872       0.00168358       0.00223843      -0.00178742      -3.67259818
N       -3.06688771       2.47568203       3.94524703      -0.00221986      -0.00017480      -0.00186711      -8.69832858
H       -3.73705825       2.62672489       4.70251405      -0.00408619       0.00044815      -0.00304811      -3.71001112
H       10.68554222      14.80400250      -2.53979820      -0.00384088      -0.00038620      -0.00135369      -3.77740348
Pb       6.81479006      13.18555083      -0.03585261       0.00017265      -0.00045655       0.00075142      -4.65443896
I       10.09563890      13.10081186       0.12406758       0.00048974      -0.00087287      -0.00080070      -2.02900935
I        7.16499892      16.39340775      -0.11658609       0.00032568      -0.00049495      -0.00177434      -1.98322613
I        6.82432244      13.37428391       3.28742489      -0.00132165       0.00143706      -0.00046905      -2.00181751
C       10.00029354      16.11375443       3.08978947       0.00080635       0.00003110      -0.00163409      -8.90664314
H        9.78150839      15.28223521       2.41433672      -0.00064301       0.00156677      -0.00367201      -3.46684488
N        9.13142376      16.40125481       4.03546318       0.00202773      -0.00346907       0.00099553      -8.67288348
H        8.27998031      15.85499236       4.14070109       0.00244190      -0.00429821       0.00091973      -3.78378346
H        9.28128383      17.18382668       4.67840015       0.00235859      -0.00467030       0.00220345      -3.73671256
N       11.12055823      16.78244007       2.91116488      -0.00104018       0.00050581      -0.00147740      -8.68820157
H       11.39654913      17.54441965       3.52898369       0.00102506      -0.00160809       0.00070521      -3.67395799
H       11.77495105      16.53385977       2.17091186      -0.00153243       0.00334592      -0.00403699      -3.82540861
Pb       6.55202972      13.11257284       6.53233553      -0.00090148       0.00018967      -0.00014340      -4.62874626
I        9.94022045      12.93882269       6.70563441      -0.00018263       0.00090057      -0.00213476      -2.04845304
I        6.24956835      16.41015466       6.53586633       0.00023091       0.00000076       0.00045144      -2.01193616
I        6.27193278      13.41973969       9.79891494      -0.00097841      -0.00105310      -0.00050731      -2.00443761
C        9.96569517      16.62261087       9.80143793       0.00105370       0.00248602      -0.00270485      -8.88800987
H        9.41650295      17.32769526      10.43195924       0.00149661       0.00561040      -0.00590716      -3.46429583
N        9.31778683      16.01589415       8.82898305       0.00103773       0.00068266      -0.00184462      -8.69614292
H        8.34268098      16.22766822       8.63275189       0.00194118       0.00207310      -0.00392258      -3.77374394
H        9.75407200      15.29099276       8.25413102       0.00113226      -0.00046645      -0.00029813      -3.71431022
N       11.24477882      16.43409008      10.04941080       0.00010509       0.00050627      -0.00008245      -8.68240637
H       11.81392243      15.80507710       9.48183389      -0.00056401      -0.00361947       0.00374537      -3.71175510
H       11.70083071      16.86695743      10.85021669      -0.00022401       0.00226921      -0.00085998      -3.79927155
Pb       6.68073383      13.19754880      12.97434275       0.00033494      -0.00061815      -0.00069483      -4.63259453
I        9.98625228      13.40879193      12.93158664       0.00066999       0.00070249      -0.00146378      -1.95088610
I        6.50776870      16.37547302      13.10733415       0.00093982       0.00010497      -0.00287606      -1.94926002
I        6.34104223      13.05770941      16.34253715       0.00071595       0.00091391      -0.00111619      -2.00599333
C        9.77725321      16.71998742      16.23579436      -0.00022157       0.00146705       0.00153565      -8.89279790
H        9.17449204      17.60050479      15.99186243      -0.00128489       0.00106141       0.00265872      -3.46829079
N        9.42711543      16.00008547      17.27939021       0.00127477       0.00041750       0.00129604      -8.61830884
H        8.62060680      16.25084125      17.85411983       0.00130141      -0.00085978       0.00190472      -3.85117846
H        9.93627634      15.16016783      17.56465450       0.00226021       0.00067663       0.00024915      -3.70872498
N       10.81288075      16.43993739      15.47477957      -0.00059037       0.00300471       0.00052004      -8.64904633
H       11.39990885      15.61849210      15.64666869       0.00046926       0.00358436      -0.00033194      -3.75426877
H       11.03026699      17.01381986      14.66285485      -0.00169455       0.00390199       0.00083994      -3.79321098
Pb       6.71174543      13.11209255      19.59485611      -0.00124600      -0.00034601      -0.00158382      -4.65501160
I       -3.17262920       6.35549950       6.33660419      -0.00099357      -0.00002278       0.00051042      -1.95371965
I        6.64198111      16.40475708      19.69241687      -0.00184305      -0.00028504      -0.00216867      -1.98835739
I       -6.34652806       6.68915050       9.80045629       0.00000900      -0.00166530      -0.00136525      -1.97229713
C       -2.82418439       9.68962509       9.60611801      -0.00186242      -0.00166850       0.00060419      -8.90637313
H       -1.80134846      10.07577099       9.62123095      -0.00315438       0.00121283       0.00721491      -3.45155629
N       -3.81448148      10.54138784       9.41502512      -0.00328922      -0.00426049      -0.00372774      -8.74289226
H       -3.63100228      11.51823762       9.20869222      -0.00500049      -0.00338749      -0.00102875      -3.76177624
H       -4.76364251      10.21514543       9.24474087      -0.00078745      -0.00710413      -0.01184628      -3.64874695
N       -3.01326049       8.40316768       9.80150317       0.00065204      -0.00251377      -0.00238658      -8.64774600
H       -3.95039459       7.98734304       9.83280141       0.00152472      -0.00452833      -0.00557027      -3.75009317
H       -2.21640731       7.77903666       9.92533581       0.00161571      -0.00073604       0.00006916      -3.83256336
Pb       6.95156751      19.56371869      12.97505445       0.00029369       0.00080642      -0.00070712      -4.63176854
I       10.18224297      19.26732851      12.90425305      -0.00000106       0.00052983      -0.00087108      -1.98677728
I       19.97774061      16.54994585      -0.10688240      -0.00199350       0.00017267       0.00045776      -1.98975141
I        6.88748422      19.63104705      16.23347924       0.00007935       0.00140126      -0.00058333      -1.97967755
C        9.54468796      22.90716842      16.19759631      -0.00170330       0.00094437       0.00024241      -8.91862177
H        8.50356965      23.04250577      16.50433839      -0.00217548      -0.00074106      -0.00063037      -3.46132538
N       10.19349772      23.94509606      15.71351887      -0.00216302       0.00260902       0.00335082      -8.72704975
H       -3.46814055      11.66426924      22.12617778      -0.00307045       0.00236709       0.00487114      -3.76355495
H       11.12792647      23.85544129      15.31315845      -0.00153564       0.00450605       0.00449234      -3.69611750
N       10.08788421      21.71753496      16.34469501      -0.00077391       0.00113517      -0.00178584      -8.70572399
H       11.07090816      21.52776384      16.13818810      -0.00053874       0.00240093      -0.00162169      -3.70326949
H        9.53864039      20.94564149      16.71454249      -0.00050840      -0.00010083      -0.00396125      -3.78363387
Pb       6.70471842      19.68160525      19.47409227       0.00002311       0.00081825       0.00015278      -4.67106084
I        9.99985067      19.72866867      19.68178910      -0.00033084       0.00047446       0.00004947      -1.98953267
I       19.66535082      16.57607315       6.25662660      -0.00013003       0.00028785      -0.00083645      -1.97793538
I       -6.51739573      13.14616314       9.71996566       0.00080022       0.00216119      -0.00010497      -1.99506723
C        9.96624298       9.52416885      -3.28361740      -0.00075401      -0.00195276      -0.00121314      -8.91336507
H       -3.26987967      14.86139214      10.03425904      -0.00226576      -0.00229356      -0.00378184      -3.45503213
N       10.61197213      10.27189303      -2.41147614      -0.00014464      -0.00493122       0.00076486      -8.70614356
H       10.86894674       9.90216561      -1.50048805      -0.00141332      -0.00747893       0.00011164      -3.75608282
H       11.03203638      11.16477603      -2.67811220       0.00098658      -0.00472708       0.00316323      -3.71194677
N        9.62707484       9.94437469      -4.48306589       0.00032228       0.00114001      -0.00043038      -8.63205053
H       22.91182670      17.57488627       8.21942197       0.00176429       0.00150080       0.00160329      -3.75727688
H       22.28727290      15.98712108       7.87486710      -0.00059312       0.00328749      -0.00179100      -3.79330125
Pb      13.36372114      13.16271600       0.01588355       0.00037322      -0.00125937       0.00056710      -4.63353985
I        3.65108422      19.54995655      12.61993509       0.00035566      -0.00072218      -0.00089945      -2.04865906
I        0.32050604       3.30215593       6.42568691      -0.00192711      -0.00063860      -0.00207380      -2.04341211
I       13.34242678      13.54909541       3.22639234       0.00491041       0.00137903       0.00024175      -1.96204572
C       16.89604182      16.56086927       3.20242934       0.00138193       0.00271397      -0.00135659      -8.89307018
H       17.85516157      16.84133257       3.64736996       0.00262339       0.00542786      -0.00580384      -3.46587464
N       16.82800057      16.39156175       1.89799849      -0.00238458      -0.00379180      -0.00026306      -8.65711194
H       17.66059770      16.49241536       1.31357757      -0.00415757      -0.00529440      -0.00296907      -3.84146342
H       15.93125060      16.26985438       1.42195642      -0.00374743      -0.00532229       0.00277852      -3.71739589
N       15.85912087      16.40510301       4.00169971       0.00417479       0.00571655       0.00263612      -8.75765725
H       15.01215299      15.93080349       3.68569377       0.00357248       0.00346247       0.00776305      -3.69659048
H       15.93861671      16.58612314       4.99612200       0.00674218       0.01271190       0.00114618      -3.72509508
Pb      13.20585555      13.20887181       6.48300815       0.00077040      -0.00008608      -0.00050366      -4.66567171
I       16.43497147      13.35253116       6.30971142       0.00005680       0.00211411       0.00353441      -1.96686644
I       12.96556954      16.41081605       6.56676359       0.00016622      -0.00046093      -0.00044880      -1.97518989
I       13.33345859      13.27860905       9.71564364      -0.00128634       0.00020866       0.00014229      -1.96850353
C       16.47425132      16.14931534       9.96296835      -0.00179026       0.00004700       0.00128960      -8.90512040
H       16.39616430      15.06648887      10.08492160      -0.00797068       0.00091086       0.00553369      -3.46624106
N       17.23446895      16.82085557      10.80085526       0.00236745      -0.00134935      -0.00137163      -8.71285867
H       17.74663672      16.35129314      11.54363193      -0.00024127      -0.00144453       0.00021312      -3.78640521
H       17.37726903      17.82691200      10.71562786       0.00945187      -0.00278180      -0.00635340      -3.68106361
N       15.80346198      16.72038687       8.98350492       0.00114861      -0.00003298      -0.00035505      -8.70080006
H       15.82838970      17.72748984       8.83141394       0.00810212      -0.00092070      -0.00537545      -3.68445143
H       15.19477325      16.18370518       8.37031205      -0.00212286       0.00128218       0.00165213      -3.80112342
Pb      13.27391133      13.35152755      12.90962204      -0.00024198       0.00020558       0.00070456      -4.65763961
I        3.45821616       6.70056538      -0.05336070       0.00065129       0.00028616       0.00038895      -1.96576737
I       13.64694874      16.58918966      12.93216726       0.00017696       0.00011005       0.00061571      -1.94789540
I       -0.07318282       6.83595500       3.23245462      -0.00199415       0.00177086       0.00036981      -2.05202895
C        3.35621987       9.50074612       3.29995159      -0.00169049       0.00095248       0.00027678      -8.90537855
H        3.59922356       8.52267405       3.72457134       0.00011804       0.00179665       0.00119221      -3.46719107
N        4.28473248      10.13182027       2.60998391      -0.00387709       0.00069729      -0.00282390      -8.74016414
H        5.19835437       9.71223160       2.46304791      -0.00384721       0.00136701      -0.00453464      -3.75326827
H        4.08138264      10.99642079       2.10558749      -0.00571068      -0.00008979      -0.00350304      -3.69248720
N        2.15356542       9.99195393       3.51355019      -0.00162588       0.00024143       0.00235439      -8.68990812
H        1.87661187      10.92433009       3.19852309      -0.00318177      -0.00050157       0.00143143      -3.71248055
H        1.46520367       9.47277122       4.05281795       0.00010829       0.00065637       0.00490045      -3.79294787
Pb      13.42250988      19.80032153      13.01421966       0.00031990       0.00024387       0.00029326      -4.66575377
I       16.67790220      19.86391001      13.20031399      -0.00006284       0.00206131      -0.00027190      -1.98779499
I       13.01516058      23.05252067      13.15701929      -0.00237525      -0.00033919       0.00431216      -2.02708098
I       13.31091780      19.83857296      16.26614847      -0.00125104      -0.00082128       0.00059675      -2.00610861
C        3.45472973      16.17541683       3.48275553       0.00007014      -0.00108345      -0.00028285      -8.91469158
H        3.43968050      15.38304602       4.23841285       0.00219288      -0.00208015      -0.00132015      -3.46808714
N        4.48107445      16.23149544       2.66260743      -0.00054579       0.00215858      -0.00089213      -8.63955963
H        5.22530823      15.53490068       2.71553320       0.00075641       0.00355195      -0.00236774      -3.83525741
H        4.52357509      16.93025795       1.91855302      -0.00266532       0.00333190       0.00004277      -3.70589023
N       15.56355008      23.68910099      16.46814526      -0.00166563      -0.00315482       0.00148536      -8.65286156
H        2.33280364      11.26760232      22.29312644      -0.00395752      -0.00252299       0.00236641      -3.70609651
H       14.80482294      23.61879494      17.14578837      -0.00093999      -0.00538217       0.00211425      -3.82546123
Cs       3.41328615      16.44947873       9.72444389      -0.00035797      -0.00025231      -0.00032268      -3.67615198
