233
Lattice="-12.957396986651146 6.351727325886291 13.017959588757243 13.11604327292129 6.668741413988977 13.017959588757243 13.195366416056363 13.17897578392661 -6.508979794378622" Properties=species:S:1:pos:R:3:forces:R:3:energies:R:1 energy=-1066.1046705819242 stress="-8.472585052335819e-05 0.0003781244526674772 -0.00024248446028304733 0.0003781244526674772 -0.00020569548904150596 -0.00011316884543782998 -0.00024248446028304733 -0.00011316884543782998 -5.732494303550003e-05" free_energy=-1066.1046705819242 pbc="T T T"
Pb      -6.33387524       6.31710109      12.94656133      -0.00025077      -0.00059375       0.00038383      -4.63823011
I       -3.05094611       6.26632908      12.76109536       0.00075558       0.00028430       0.00031450      -2.00138768
I       -6.22885848       9.57936296      13.00537402      -0.00017070      -0.00022634       0.00194383      -1.99923390
I        6.82753885      19.17303813       9.71391128       0.00012015      -0.00126391       0.00020366      -2.00152408
C       -3.40554090       9.91106885      16.16384223      -0.00105754       0.00006322       0.00166204      -8.90652351
H       -4.35684562      10.44927494      16.21592622      -0.00021546       0.00262294      -0.00060889      -3.47165741
N       -2.62257392       9.92527844      17.22191325      -0.00323980       0.00000836       0.00288335      -8.72121405
H       -2.86057062      10.47170759      18.04664036      -0.00348133       0.00109377       0.00210715      -3.79059075
H       -1.74722933       9.40317307      17.24774639      -0.00333755      -0.00074534       0.00449788      -3.66581239
N       -3.10256589       9.28322863      15.04793497      -0.00115861      -0.00180303       0.00331985      -8.68571419
H       -2.21404044       8.79649054      14.92960143      -0.00287945      -0.00666668       0.00642244      -3.68050944
H       -3.75744190       9.27858429      14.26637117       0.00035779      -0.00159961       0.00198797      -3.81291950
Pb       0.44470805      19.49823037       6.38309345       0.00038658       0.00057187       0.00026751      -4.64001668
I        3.63083600      19.28153861       6.67293018       0.00046020      -0.00272031      -0.00002689      -2.00443536
I       13.73001636       9.91575370      13.12057382       0.00313376      -0.00047525       0.00231819      -2.02867743
I       13.42618509      13.02648934      -3.39509036      -0.00043598      -0.00109215       0.00012082      -2.00333878
C        3.41235572       3.27319453       3.63344918       0.00117127      -0.00008615       0.00080246      -8.90815414
H        3.83458575       3.43372508       4.63009386       0.00152221      -0.00145062       0.00086620      -3.46334592
N        3.56641046       2.09176586       3.07403625       0.00014756       0.00018632      -0.00036241      -8.69548885
H        4.27176853      20.86471100      10.07454483      -0.00023292      -0.00047209      -0.00137040      -3.80084068
H       -9.75797902       8.22704274      15.16489580      -0.00069318       0.00155536      -0.00036780      -3.67673853
N        2.79769093       4.27652159       3.04558291       0.00190827       0.00096328       0.00195234      -8.68732848
H        2.30714907       4.15089010       2.15635847       0.00197790       0.00228894       0.00165538      -3.72842451
H        2.68340822       5.16235315       3.53282111       0.00270843       0.00050101       0.00287827      -3.77475374
Pb       0.01281039       6.41418242       6.40778691      -0.00057030       0.00010099      -0.00029080      -4.66457373
I        3.26879315       6.52742093       6.07310227      -0.00043351      -0.00096477       0.00075570      -1.99097818
I       -0.09499238       9.73124091       6.96055087      -0.00222821       0.00026944      -0.00025459      -2.02907749
I        0.22642631       6.13977386       9.64810522       0.00028703      -0.00034921       0.00003514      -1.97170215
C        2.93855812       9.75081692       9.87988000      -0.00315833      -0.00209885       0.00109268      -8.89167068
H        2.01082691      10.29448356       9.67588869      -0.00421949      -0.00396721       0.00128969      -3.44595443
N        3.80676854      10.28703372      10.71091901      -0.00452333      -0.00172293       0.00173482      -8.61039756
H        3.60947224      11.16590195      11.19206185      -0.00642182      -0.00206841       0.00286902      -3.84846922
H        4.65934082       9.80233395      11.00329390      -0.00376392       0.00000007       0.00175121      -3.71317356
N        3.13697298       8.59878643       9.27248698      -0.00020169      -0.00112769      -0.00003874      -8.67505618
H        3.97873320       8.03908687       9.43643230       0.00015175       0.00026391      -0.00016148      -3.74616988
H        2.43517651       8.20446669       8.65267986       0.00034031      -0.00200460      -0.00101814      -3.77997432
Pb       0.19054251       6.50056740      12.89721423       0.00099170       0.00192340      -0.00041567      -4.65736734
I        3.47254760       6.76494579      13.20888879       0.00094918       0.00144391       0.00204074      -2.02254137
I        0.16942700       9.75014140      12.87458609      -0.00231721       0.00085903      -0.00521289      -1.95937087
I       13.02730555      19.91714415       9.64217194      -0.00047188       0.00443772       0.00007152      -2.00012317
C        3.34964264       9.77167857      16.57242970      -0.00284044      -0.00035806       0.00022989      -8.90185513
H        3.56911946      10.21729960      17.54711410      -0.00566778       0.00189742      -0.00022416      -3.46832517
N        2.54635473      10.42359742      15.75720613      -0.00794725      -0.00719239       0.00002544      -8.66060410
H        2.08858292      11.28835274      16.04485407      -0.01356906      -0.00945103      -0.00077512      -3.82016326
H        2.21461808      10.01154189      14.88299728      -0.00387042      -0.00922227      -0.00035437      -3.69253801
N        3.92293567       8.62933975      16.26568608       0.00542045       0.00347928       0.00072042      -8.61503558
H        3.74578446       8.15328227      15.37125835       0.00647940       0.00059429       0.00218545      -3.79447876
H       17.70441136      21.32708938      10.43331578       0.00978176       0.00881844       0.00094435      -3.77702595
Pb       0.12607435      13.03796007       6.44273141       0.00049727       0.00043313      -0.00006879      -4.60997637
I        3.41910695      13.51582052       6.25074556       0.00059824       0.00288058      -0.00284274      -2.06484386
I        0.18598766      16.27217111       6.45010383      -0.00125582       0.00031603      -0.00103105      -1.93303618
I        0.34664282      13.24905306       9.65012271       0.00126549       0.00207707      -0.00058023      -2.03951673
Pb       0.16739591      13.06125017      12.93254890      -0.00092933       0.00034801      -0.00083446      -4.63400994
I        3.47093264      13.20934486      12.96618492      -0.00144559      -0.00094363       0.00002386      -2.03641230
I        0.44897834      16.28383806      12.79651428      -0.00005070       0.00036261       0.00170334      -1.97920279
I       -0.04816483      13.07028789      16.19616981      -0.00272547      -0.00297305      -0.00018293      -1.93953327
C        3.42115202      16.14062271      15.78478986      -0.00011255       0.00042328      -0.00102285      -8.90252524
H        3.58234045      16.36346030      14.72677296       0.00415756       0.00272608       0.00012264      -3.45406426
N        3.83657379      14.98508133      16.25627265      -0.00210768      -0.00067495      -0.00186434      -8.66106240
H        4.27652737      14.30102001      15.64576159      -0.00015874       0.00042455      -0.00164012      -3.80334778
H        3.66484212      14.69147776      17.22106961      -0.00440613      -0.00204558      -0.00267165      -3.72939394
N        2.83604453      17.05298140      16.53394299      -0.00303237      -0.00113612      -0.00133888      -8.68850044
H        2.62669159      16.88841693      17.51758456      -0.00842549      -0.00400131      -0.00292831      -3.68878706
H        2.46834146      17.91156685      16.13379133      -0.00092051      -0.00002802      -0.00089340      -3.78565023
Pb       0.06569298      12.97786278      19.44064877      -0.00123679      -0.00012995      -0.00004854      -4.65279225
I        3.33321215      12.81907838      19.19764286      -0.00094127       0.00019417      -0.00073716      -2.05612182
I       13.22326349       9.84669472       6.30631922      -0.00213292       0.00041855      -0.00218215      -1.93124402
I        0.63990603      13.03967682      22.66254671      -0.00096615       0.00072111      -0.00010214      -1.99721116
C        3.17066907      16.29698002      22.81946772      -0.00113035       0.00005597       0.00001007      -8.90244037
H       15.20271193       9.65851178      10.30941630       0.00011320      -0.00044461       0.00214525      -3.46125874
N        3.63541356      15.50654308      21.87572560      -0.00450810       0.00251216      -0.00357180      -8.68203943
H        3.14603611      14.64902933      21.63217046      -0.00704270       0.00252534      -0.00440280      -3.77958245
H        4.46929874      15.74192759      21.32994748      -0.00613722       0.00177132      -0.00481780      -3.72717408
N       16.71722872      11.06407963      10.16585660       0.00141440      -0.00237416       0.00020244      -8.64031740
H        4.64414177      17.72833717      22.77406760      -0.00017362      -0.00137139      -0.00135157      -3.72882511
H       16.35420107      11.63058430      10.93165549       0.00383888      -0.00279622       0.00370215      -3.81948465
Pb       6.65753853       6.53324219       0.01341393      -0.00059369      -0.00048247       0.00011927      -4.65883891
I       -3.06383208      13.13748478      12.88025322      -0.00110157      -0.00003325      -0.00220187      -1.96700179
I        6.68017056       9.72001493       0.15693302      -0.00279974      -0.00030767      -0.00071612      -1.88536200
I        6.80892159       6.58637560       3.25170282       0.00112838       0.00211653       0.00067205      -2.04006881
C        9.89634984      10.21157149       3.31741085      -0.00128803       0.00163884      -0.00188396      -8.90053374
H       10.26126545      11.12294571       3.80052201      -0.00038491       0.00277909      -0.00474459      -3.45683634
N       10.47378687       9.81637450       2.20097970      -0.00646852       0.00128775      -0.00445225      -8.70494505
H       11.23244660      10.34334762       1.77656514      -0.01011106       0.00314077      -0.00960492      -3.76707507
H       10.18136863       8.96749782       1.71160474      -0.00701018       0.00032852      -0.00194410      -3.71138942
N        8.90673131       9.55747849       3.88871384       0.00312763       0.00022460       0.00377187      -8.65299602
H        8.48006120       8.73119242       3.45857335       0.00162527      -0.00022024       0.00633541      -3.73568884
H        8.47042344       9.89105579       4.74670377       0.00616553       0.00119790       0.00532098      -3.79563328
Pb       6.52562187       6.46253920       6.53136196      -0.00043615       0.00033585       0.00067793      -4.65086797
I        9.78794564       6.42081985       6.89068409      -0.00056777       0.00208924       0.00149884      -2.00085584
I        6.54382775       9.78430705       6.85689624      -0.00171932       0.00010479       0.00162141      -2.01292235
I        6.10369492       6.30533192       9.76755949       0.00030162      -0.00055542       0.00049037      -2.03996318
C        9.82297947       9.86316213       9.82267378       0.00080390      -0.00012843       0.00047431      -8.92341456
H        9.05029089       9.09233601       9.78040351       0.00230934      -0.00209321       0.00614448      -3.43585024
N        9.47034662      11.12363900       9.65875134      -0.00375192      -0.00107016       0.00017113      -8.73453036
H        8.50235588      11.39628162       9.50586953      -0.00485975      -0.00402936       0.00449833      -3.78639502
H       10.15771318      11.87264612       9.72814580      -0.00507846       0.00073372      -0.00433101      -3.67339334
N       11.07255765       9.50177653      10.03706611       0.00247766       0.00355560      -0.00569972      -8.73186371
H       11.82092177      10.19457960      10.05226669       0.00103589       0.00570886      -0.01197537      -3.68381073
H       11.33407277       8.52794366      10.16645328       0.00613595       0.00430419      -0.00630966      -3.77539922
Pb       6.68288734       6.54084448      12.95865456       0.00059028       0.00047007       0.00028129      -4.61850119
I       10.02264651       7.03851326      12.87877793       0.00092327       0.00257820      -0.00012076      -2.03792634
I        6.79567627       9.74307974      12.75672623      -0.00084675       0.00037529      -0.00281909      -1.96057930
I       20.21619697      19.37487402       9.68278303       0.00141516       0.00014085       0.00005228      -2.04989040
C        9.99495607      10.11858365      16.38207223      -0.00049809       0.00135006      -0.00149873      -8.90047259
H       -3.22210941       4.11091459       4.23005821      -0.00238010       0.00376716      -0.00338833      -3.47015925
N       10.97993965      10.34470035      15.53903010       0.00209779      -0.00217514       0.00111490      -8.69147639
H       11.62966350      11.11522210      15.69728355       0.00298096      -0.00239352       0.00124983      -3.84079078
H       11.15868594       9.73320937      14.74403338       0.00360596      -0.00383238       0.00277216      -3.64464712
N        9.12630467       9.14164845      16.23622859      -0.00109111       0.00213047      -0.00176896      -8.70041289
H        9.16399543       8.50835491      15.43706837       0.00025101       0.00015075       0.00011796      -3.68698192
H       21.56613508      22.19331464      10.39724732      -0.00334383       0.00440680      -0.00314102      -3.80663237
Pb       6.82933150      12.91339315       0.03098761      -0.00056205      -0.00065759      -0.00011506      -4.66713364
I       10.03648318      13.02465538      -0.10259889       0.00024429      -0.00318168       0.00029580      -1.89123656
I        6.62570055      16.14865101      -0.38728362      -0.00020678      -0.00027246      -0.00045089      -1.99066085
I        6.92724074      13.26937240       3.20818422       0.00054786      -0.00126650      -0.00023592      -1.97502632
C       10.15402626      16.61151920       3.24950813       0.00209152       0.00112525       0.00005825      -8.90764801
H       10.78120437      17.47700232       3.01400531       0.00066875       0.00162657      -0.00185550      -3.45565047
N       10.41362111      15.93931174       4.35062032       0.00120949       0.00535329       0.00253041      -8.65747212
H       11.19463993      16.19951232       4.95300140       0.00023016       0.00887824       0.00302772      -3.83364578
H        9.88636076      15.10668989       4.62096111       0.00320959       0.00481157       0.00424672      -3.69408124
N        9.18005696      16.29906896       2.42124714       0.00408009      -0.00375849      -0.00061200      -8.68525425
H        8.55000934      15.51327585       2.60368008       0.00539306      -0.00420467       0.00076803      -3.72787617
H        9.01009078      16.85663770       1.58825626       0.00432766      -0.00641026      -0.00277575      -3.77896687
Pb       6.65931550      13.08974366       6.48650525      -0.00008401       0.00018339       0.00006596      -4.63351444
I        9.90876914      12.94426918       6.45922948       0.00016181       0.00154124      -0.00051035      -1.97447106
I        6.89187257      16.26528313       6.58808712       0.00161248      -0.00016965      -0.00101268      -1.93721663
I        6.34689753      13.36160343       9.71054350      -0.00186760       0.00196398      -0.00027696      -2.03972599
C       10.01596652      16.76039672       9.49407427       0.01284550       0.00474077      -0.00600973      -8.92309893
H        9.85597255      17.71497919       8.98503006      -0.00122949      -0.00365889      -0.00670684      -3.46767178
N        8.96800736      16.03731926       9.81950171      -0.00647484      -0.00511457       0.00505657      -8.71373057
H        8.03119810      16.34913459       9.57823965       0.00460438      -0.00228193       0.00481439      -3.77279185
H        9.05449806      15.18650459      10.37684216       0.00668435       0.00367194       0.00566625      -3.69815648
N       11.25589694      16.38517320       9.73676057      -0.00454877       0.00766062      -0.01009120      -8.74467160
H       11.46907843      15.51372284      10.21888270       0.00699233      -0.00019403      -0.00239706      -3.67294524
H       12.03291863      17.00051715       9.51700476       0.00235829       0.00275502      -0.01311105      -3.76086078
Pb       6.76601550      13.03978238      12.98169316      -0.00115167       0.00014670      -0.00075687      -4.62990550
I        9.97445571      13.42984106      12.58078243      -0.00126405      -0.00041461       0.00077763      -1.96815431
I        6.69054289      16.27029008      13.25655148      -0.00107641       0.00013445       0.00065624      -1.99858130
I        6.88130620      12.72233977      16.16836683      -0.00110871      -0.00038720      -0.00060672      -1.92175807
C        9.93440460      16.42268211      16.56295360      -0.00240487       0.00150307       0.00377991      -8.90134056
H       10.40146209      16.20258191      17.52727331      -0.00359195       0.00106854       0.00405798      -3.43439396
N       10.65084475      17.05089297      15.65204708      -0.00092529       0.00277721       0.00506310      -8.65252873
H       11.59963310      17.36512388      15.85337653      -0.00217892       0.00284147       0.00650605      -3.82531920
H       10.23667993      17.40219481      14.78578367      -0.00072226       0.00375613       0.00499148      -3.71335074
N        8.69368903      16.03057658      16.35758620      -0.00219707       0.00080690       0.00199923      -8.64626341
H        8.22493268      16.15294385      15.45300609      -0.00089514       0.00161144       0.00116265      -3.76466225
H        8.15092669      15.59635434      17.10044329      -0.00258456       0.00067717       0.00058468      -3.79516586
Pb       6.64182913      12.88687554      19.43235693      -0.00025098       0.00015301      -0.00060843      -4.65872355
I       -3.26143311       6.16753032       6.57339063      -0.00056602      -0.00118975      -0.00074252      -2.00003252
I        6.58136341      16.16599927      19.51589663      -0.00134819      -0.00015138       0.00035413      -2.00404361
I       -6.56860078       6.19797743       9.70054505       0.00364758       0.00269710      -0.00063946      -1.95487887
C       -3.32383911       9.71548892       9.87482625      -0.00143176      -0.00143914       0.00080674      -8.92282057
H       -4.15734051       9.77425618      10.58246398      -0.00059041      -0.00214758       0.00201324      -3.45221666
N       -2.51418884       8.68079754       9.95212365      -0.00241839      -0.00209724      -0.00259367      -8.64730673
H       -2.64509410       7.96194360      10.66533443      -0.00174331      -0.00334669      -0.00324377      -3.85622980
H       -1.70411184       8.59265907       9.33732641      -0.00287728      -0.00132160      -0.00323935      -3.68289942
N       -3.18005021      10.68078497       8.99247580      -0.00166621       0.00021603       0.00269391      -8.65259771
H       -2.42633487      10.65813365       8.30104703      -0.00272044       0.00126160       0.00176693      -3.71569365
H       -3.84885518      11.44754320       8.95325883      -0.00162598       0.00082951       0.00494838      -3.80597633
Pb       6.83609883      19.51679906      12.94263532       0.00049967       0.00024206       0.00027537      -4.64989549
I       10.09535980      19.45471461      12.87712476      -0.00005971      -0.00187652       0.00165377      -1.99651235
I       19.73818343      16.42749445      -0.20661759       0.00222212       0.00028106      -0.00029295      -1.95935433
I        6.74260034      19.70722957      16.20654604       0.00167205       0.00083762       0.00024658      -1.92444936
C       10.14193483      22.98935510      16.32613069       0.00166330       0.00159580       0.00196627      -8.88592252
H       10.59953234      23.76445027      15.70498513      -0.00012527       0.00272593       0.00199649      -3.46118690
N        9.96991099      21.78953478      15.80665235       0.00258686       0.00182459       0.00118120      -8.71495127
H       10.23026226      21.57472490      14.84715726       0.00247106       0.00295492       0.00084149      -3.76534067
H        9.47636232      21.05926958      16.32158295       0.00354637       0.00098068       0.00079859      -3.69389286
N        9.77760439      23.29773469      17.55645271       0.00265086       0.00007441       0.00252953      -8.69299333
H        9.42227957      22.57936452      18.18847097       0.00595553      -0.00134765       0.00282198      -3.68155049
H       22.91540703      17.86996678       4.93375881       0.00214071       0.00005800       0.00310398      -3.82503617
Pb       6.69136291      19.51637033      19.37260144       0.00004149       0.00022195       0.00016085      -4.66283266
I       10.01774798      19.85315006      19.20251922       0.00061204       0.00037845       0.00125748      -1.98604253
I       19.43135798      16.37746906       6.67600778       0.00038537      -0.00003051       0.00108317      -1.97372731
I       -6.27788704      12.67853139       9.70656947      -0.00118565       0.00038665       0.00041213      -2.06016551
C       10.06343255       9.66512105      -3.37729723      -0.00016123      -0.00120726      -0.00170400      -8.90377949
H       -2.13491171      15.22879321       9.63340793      -0.00041930      -0.00144127      -0.00311144      -3.46298900
N       10.43104628      10.89841998      -3.65920067      -0.00031090      -0.00136519      -0.00248269      -8.66259295
H       11.40187862      11.14709033      -3.84143050      -0.00048695      -0.00184987      -0.00438623      -3.80930194
H        9.75354084      11.66054845      -3.61133891       0.00016705      -0.00107341      -0.00095159      -3.69908814
N        8.81756412       9.34367753      -3.09787128       0.00031866      -0.00077054       0.00074198      -8.66310884
H        8.08879272      10.05898965      -3.08363862       0.00039006      -0.00078118       0.00136748      -3.70881660
H        8.53734505       8.38596136      -2.89645087       0.00053290      -0.00074887       0.00150834      -3.81047255
Pb      13.20639729      13.20531608      -0.18751104       0.00019582       0.00020349       0.00002440      -4.63837980
I        3.59673125      19.37078588      12.72455217      -0.00000155       0.00120700       0.00028062      -2.05201512
I        0.04741370       3.24233200       6.09873248      -0.00056350       0.00025320      -0.00065280      -1.87988747
I       13.08386489      13.24597118       3.12853562      -0.00052922       0.00259647       0.00026018      -2.02041225
C       16.82104014      16.29469577       3.14770343       0.00218135      -0.00124661      -0.00025645      -8.90154163
H       17.77705624      16.54812964       2.67978557       0.00208866      -0.00270530      -0.00156052      -3.44632571
N       16.08466177      15.35457943       2.59207139       0.00042861      -0.00018865       0.00212193      -8.63626189
H       16.40330890      14.84848046       1.76589235      -0.00089397      -0.00190529       0.00120026      -3.83113779
H       15.19902731      15.04267700       2.99741019       0.00068965       0.00072651       0.00271765      -3.71750800
N       16.46103648      16.94644969       4.23272623       0.00394206      -0.00010136      -0.00051455      -8.66890101
H       15.59245492      16.73367857       4.73246319       0.00517022       0.00144403       0.00113966      -3.74662865
H       17.05804744      17.66680123       4.63082908       0.00612140       0.00012184      -0.00156852      -3.79018366
Pb      13.17437121      13.03311498       6.39269606       0.00040143       0.00127933      -0.00067246      -4.65531704
I       16.44222337      12.96006343       6.35757275       0.00017446      -0.00076028      -0.00122038      -1.94139754
I       13.50118143      16.39445715       6.49337202       0.00390282       0.00139985       0.00126954      -2.02663001
I       13.09196993      12.86232360       9.68871282      -0.00140932       0.00067543      -0.00048617      -2.05492220
C       16.32899200      16.26836335       9.97294789       0.00222359      -0.00313175       0.00077908      -8.89500503
H       15.67428890      16.35620740      10.84425898       0.00240232      -0.00236206       0.00145512      -3.48307337
N       17.23568262      17.19996165       9.77808931       0.00150824      -0.00255979      -0.00006364      -8.65888843
H       17.32893246      17.96795209      10.44091944       0.00132459      -0.00165586      -0.00066811      -3.81080782
H       17.88836928      17.15695119       8.99208731       0.00153159      -0.00294135      -0.00002152      -3.72143990
N       16.16633914      15.23226837       9.17773636       0.00280037      -0.00290436       0.00248592      -8.69999133
H       16.71464831      15.11422033       8.32555050       0.00204221      -0.00398825       0.00194327      -3.67033857
H       15.42228853      14.55712757       9.34144585       0.00236657      -0.00388392       0.00293807      -3.81621033
Pb      13.19783749      13.20669617      12.99016417      -0.00109747      -0.00035941      -0.00006545      -4.64607382
I        3.36732473       6.73768639       0.07230808      -0.00075510      -0.00181949       0.00049734      -2.02079243
I       13.33950656      16.36657246      12.67137624      -0.00075943      -0.00062396      -0.00133555      -1.96371958
I       -0.19368157       6.86918191       3.16326041      -0.00049649       0.00000336      -0.00016441      -1.99021426
C        3.70043361       9.49210744       3.31842814       0.00217376       0.00066719       0.00000221      -8.91616726
H        4.24739630       8.54535499       3.35737464       0.00654351       0.00293825      -0.00074196      -3.46915951
N        3.15824976       9.85606852       2.17806487      -0.00177547      -0.00229994       0.00146486      -8.68891773
H        3.23956333       9.26319183       1.35386422      -0.00097922      -0.00201483       0.00109882      -3.80630738
H        2.62017057      10.71900467       2.09161684      -0.00681871      -0.00502661       0.00268768      -3.70336113
N        3.61352963      10.20663536       4.42247669       0.00157240       0.00052719       0.00017265      -8.70522274
H        3.13398040      11.10670071       4.44133173      -0.00104516      -0.00076062       0.00029971      -3.67930204
H        4.10071569       9.91639673       5.26729281       0.00481402       0.00305585      -0.00085048      -3.77978263
Pb      13.37506775      19.58916682      12.83652002       0.00055102      -0.00011272       0.00001955      -4.65081279
I       16.62486385      19.51561137      12.73817960      -0.00014321       0.00071778      -0.00201169      -1.99141073
I       13.31227935      22.83983791      13.07562210      -0.00389169      -0.00033861       0.00585440      -2.02065172
I       13.65516347      19.19059276      16.19714710       0.00081164      -0.00119883      -0.00041976      -2.05392035
C        3.47173596      16.51977686       2.97514240       0.00189685      -0.00031910      -0.00414787      -8.91675803
H       16.62639457      24.01010611      15.27042038      -0.00106945      -0.00297389      -0.00694566      -3.44923942
N        4.36317847      16.49542515       3.94105102       0.00885895       0.00083196      -0.00998659      -8.63085373
H        5.07625982      17.22173169       4.00421048       0.00942293      -0.00037948      -0.01646493      -3.83719837
H        4.33773997      15.78585435       4.67576975       0.01189549       0.00235871      -0.00782322      -3.71735622
N       15.65206716      22.27564296      15.84697315      -0.00179347       0.00110967       0.00501533      -8.61937260
H        2.45261338      14.81667920       3.46905880       0.00147997       0.00350844       0.00854332      -3.68033911
H       14.96980118      22.34538585      15.08881471      -0.00532000       0.00003912       0.00912435      -3.86847393
Cs       3.37630905      16.25372093       9.62756186      -0.00026057       0.00033130      -0.00030350      -3.68775753
