233
Lattice="-12.957396986651146 6.351727325886291 13.017959588757243 13.11604327292129 6.668741413988977 13.017959588757243 13.195366416056363 13.17897578392661 -6.508979794378622" Properties=species:S:1:pos:R:3:forces:R:3:energies:R:1 energy=-1065.8334198531707 stress="-8.460475507290582e-05 0.0005488227571404058 7.252350827407675e-05 0.0005488227571404058 6.285546879996037e-05 5.846007512693699e-06 7.252350827407675e-05 5.846007512693699e-06 -5.984741968217222e-05" free_energy=-1065.8334198531707 pbc="T T T"
Pb      -6.32161808       6.35484894      12.92557834      -0.00140397      -0.00098634      -0.00035600      -4.61552144
I       -3.14107970       6.19165245      12.76398732      -0.00128112      -0.00626828      -0.00341959      -1.92275899
I       -6.07227799       9.59186686      13.23890558       0.00211050      -0.00126487      -0.00111095      -1.97233302
I        6.51758215      19.36189503       9.69515352      -0.00116353      -0.00034714      -0.00054578      -2.09752179
C       -3.17983901       9.76154982      16.27043923       0.00314348      -0.00185769       0.00642740      -8.90539845
H       -3.87579941      10.59254081      16.13410922      -0.00076732       0.00566048       0.01389220      -3.45312058
N       -1.89016266       9.97283963      16.10482048      -0.00367787       0.00647980      -0.00165061      -8.71120452
H       -1.51407663      10.89774890      15.90616003      -0.00135468       0.00226311       0.00126502      -3.79847716
H       -1.22929134       9.19610527      16.14817053       0.00037736       0.00110150      -0.00720961      -3.69814530
N       -3.66507266       8.57537844      16.58600822      -0.00294786       0.00775016       0.00097019      -8.74604511
H       10.15435735      20.97631892      10.28508314       0.00374775      -0.00237427      -0.00663810      -3.65008587
H       -4.66088137       8.43223522      16.72701188       0.00408015       0.00234691       0.00829123      -3.77536038
Pb       0.24609866      19.43125356       6.43894313      -0.00051795      -0.00062059       0.00038438      -4.63639162
I        3.54753202      19.33182753       6.44817015      -0.00076395      -0.00476159      -0.00233610      -2.04223234
I       13.29001257       9.83669108      12.70059904       0.00143659       0.00010323       0.00270498      -1.98353553
I       13.15348172      13.36553964      -3.30942709       0.00151162       0.00033573      -0.00027375      -2.01744989
C        3.27408150       2.98450304       3.55475694      -0.00145776      -0.00343233      -0.00086631      -8.89481129
H        3.34897936       2.17289134       4.28485836      -0.00032837      -0.00380017      -0.00142671      -3.47270322
N        2.28957748       3.84792136       3.68896112      -0.00314170      -0.00620099      -0.00222173      -8.67298896
H        1.60973863       3.75193504       4.44271491      -0.00406890      -0.00783304      -0.00284098      -3.83637334
H        2.17734376       4.63918005       3.05488320      -0.00440112      -0.00591739      -0.00187238      -3.67073791
N        4.16670781       3.04603320       2.59139593       0.00068158      -0.00108152       0.00018669      -8.66114346
H        4.15422426       3.79293712       1.89312388      -0.00057502      -0.00074560       0.00059036      -3.71663660
H       -8.03925859       8.71438392      15.55350624       0.00180597       0.00096615       0.00130287      -3.80279959
Pb       0.05302189       6.58598288       6.39832950       0.00074700       0.00109319      -0.00049932      -4.65009395
I        3.38364377       6.89214550       6.42035813       0.00127925       0.00138722       0.00047156      -2.00978066
I       -0.15218527       9.82939396       6.20438950      -0.00273538       0.00062803      -0.00044110      -2.00714288
I        0.32443109       6.64878267       9.66878922      -0.00040969       0.00376562      -0.00093378      -2.01791537
C        3.36545557       9.99452114       9.79338428       0.00007694       0.00558006       0.00016630      -8.90996576
H        3.84821202      10.97569672       9.81062912      -0.00054038       0.00367589       0.00021296      -3.43824958
N        4.09020854       8.93619471      10.10117862       0.00080168       0.00189298      -0.00007458      -8.73000217
H        5.04693220       9.03133968      10.42984063       0.00134562       0.00473577      -0.00094071      -3.78708314
H        3.67634505       8.00877527      10.16229581       0.00211626       0.00490636      -0.00083956      -3.64042758
N        2.09955738       9.91928100       9.44035455      -0.00023073       0.00238832       0.00137931      -8.64293549
H        1.59434319       9.02686731       9.44962969       0.00043521       0.00343127       0.00158069      -3.75652102
H        1.55841936      10.76257447       9.25310359      -0.00055488       0.00344741       0.00177303      -3.81904431
Pb       0.06655107       6.50048436      12.87786701      -0.00189411      -0.00111859      -0.00183778      -4.65777008
I        3.35171463       6.48476681      12.91534803      -0.00176273       0.00253366       0.00094128      -2.01200034
I        0.04759831       9.77204167      12.86267519      -0.00352516       0.00036350       0.00081541      -1.95104419
I       12.92648533      19.64590085       9.72701330      -0.00412212      -0.00147306      -0.00149748      -2.08811833
C        3.55916483       9.81358977      15.99299624       0.00254402       0.00088451      -0.00769155      -8.91708827
H        4.22573432       9.82962669      15.12559193       0.00318819       0.00198137      -0.00833385      -3.45034269
N        2.35342478       9.29959282      15.85847731       0.00544122      -0.00231372      -0.00741470      -8.66392090
H        1.99930490       9.01022198      14.94995636       0.00634398      -0.00592484      -0.00701566      -3.78692788
H        1.71283736       9.26775844      16.65625582       0.00410466      -0.00194144      -0.00772756      -3.72979216
N        4.00836390      10.28397637      17.13930126       0.00307570       0.00404653      -0.00940796      -8.71288791
H        3.39842419      10.34697574      17.95481643       0.00239602       0.00171099      -0.00776331      -3.67676595
H        4.93281865      10.69991803      17.21066731       0.00036035       0.00664197      -0.00975190      -3.78614565
Pb       0.08883712      13.09021429       6.44902161       0.00012108       0.00081790      -0.00120886      -4.63399783
I        3.34345327      12.95801447       6.85815587       0.00061544      -0.00350533      -0.00024248      -2.00091188
I        0.34676380      16.26640586       6.97719973      -0.00017285       0.00011004       0.00074760      -1.99335273
I       -0.08899047      13.00919181       9.68867004       0.00165904       0.00263964      -0.00027667      -2.02370118
Pb       0.20125167      13.04411878      12.91831397       0.00045383       0.00033715       0.00009355      -4.63756326
I        3.45370063      13.19259138      12.76168876       0.00076829      -0.00261430       0.00126237      -2.02724697
I        0.40399466      16.31541461      12.64564893       0.00323378       0.00021128      -0.00007046      -2.01307921
I        0.36071643      13.07057696      16.17562457       0.00173338       0.00412887       0.00003098      -2.02781055
C        3.45089172      16.53463051      16.29549942       0.00026729       0.00466344       0.00050920      -8.89589189
H        3.85742209      17.44600415      16.74268343       0.00130652       0.00555594      -0.00288217      -3.44379754
N        4.13720099      15.94443460      15.33753748      -0.00418130       0.00339328      -0.00159759      -8.65920600
H        5.02165900      16.32073478      15.00190326      -0.00606954       0.00357662      -0.00674402      -3.79871097
H        3.78230917      15.12296879      14.84289476      -0.00563879       0.00215492       0.00184356      -3.70768294
N        2.29795032      16.07658201      16.73554036       0.00238323       0.00415234       0.00719138      -8.61284823
H        1.90221246      15.18661861      16.41117650       0.00085338       0.00460960       0.00843305      -3.77243508
H        1.79192927      16.54306071      17.48587719       0.00567396       0.00501887       0.00829079      -3.80362839
Pb       0.24669325      12.97990621      19.50626483       0.00100784      -0.00032337      -0.00059970      -4.65176355
I        3.46204747      13.23741164      19.57225620       0.00109572      -0.00089897      -0.00097967      -1.92965180
I       13.14067632       9.87890316       6.82968021      -0.00190835      -0.00054270       0.00269309      -1.95396569
I       -0.00659883      12.48453790      22.72075557       0.00415808       0.00046809      -0.00035014      -2.01540539
C        3.20433349      16.30135688      23.00106736      -0.00375224      -0.00004046       0.00040034      -8.88211225
H       15.13750257       9.83662666      10.35021756      -0.00523934       0.00021127      -0.00518955      -3.47707367
N       16.44007604      10.98456949       9.22239259       0.00000284       0.00415184       0.00318561      -8.65357962
H       15.72242347      11.67295873       9.00238243       0.00085286       0.00353361       0.00279053      -3.82342530
H        4.43714525      17.55946659      21.95697542       0.00099716       0.00476589       0.01051270      -3.69526688
N        4.08860985      15.39055037      23.34621980      -0.00571960       0.00033292       0.00056723      -8.64726262
H       -8.08695921       8.70126961       9.93382333      -0.00431548      -0.00048031       0.00333966      -3.67433367
H       -9.27100632       7.97160288      10.97620607      -0.00784828      -0.00140347      -0.00120945      -3.85648049
Pb       6.69974869       6.43113132      -0.04426286       0.00059367      -0.00163198      -0.00009972      -4.65660434
I       -3.04192219      13.00271878      13.01906712       0.00061839       0.00204491       0.00096733      -1.96771050
I        6.71991651       9.77753569      -0.28044968      -0.00019433      -0.00112872       0.00018638      -1.99377152
I        6.55578987       6.62968988       3.19769501       0.00088136      -0.00161188      -0.00005161      -1.98124813
C        9.84971784      10.17325159       3.04466442      -0.00465019       0.00012258       0.00135890      -8.90064314
H       10.15351913      10.83923373       2.23096738      -0.00233744       0.00649293       0.00243750      -3.46245859
N        8.62922992       9.67898062       3.02373573       0.00355791      -0.00084169      -0.00259260      -8.69056730
H        8.00465850       9.85902915       2.23851302      -0.00006375      -0.00144626      -0.00467374      -3.81869264
H        8.24343019       9.16983132       3.81836192       0.00121544      -0.00744926      -0.00638698      -3.68199941
N       10.72266133       9.90087971       3.99158095       0.00155261       0.00588521      -0.00178135      -8.72268097
H       10.52538309       9.21666063       4.72253724      -0.00235814      -0.00140541       0.00112227      -3.68070818
H       11.62382949      10.37072933       4.01689530      -0.00586456       0.00265300       0.00289333      -3.77956536
Pb       6.66725625       6.56859299       6.45880091       0.00072839       0.00010317       0.00019879      -4.66303957
I        9.92875392       6.56205458       6.11294990       0.00110476      -0.00146986       0.00044368      -1.97649156
I        7.14332632       9.81008440       6.67783157       0.00448209      -0.00110045       0.00094459      -1.99961865
I        6.63576068       6.25342673       9.68758396      -0.00357044      -0.00032837      -0.00022405      -1.94329314
C       10.03255165       9.76910935       9.99947646       0.00364382      -0.00570997       0.00396716      -8.92549708
H       10.46424854       9.65362315      10.99772359       0.00549176      -0.00450766       0.00246684      -3.45850513
N        9.49122280      10.92679213       9.68330304       0.00413900      -0.00332323       0.00315865      -8.69403936
H        9.43969111      11.67490264      10.37087723       0.00797061      -0.00350330       0.00307833      -3.79772762
H        9.09444669      11.10276356       8.75969935       0.00184458      -0.00490172       0.00520820      -3.69273538
N       10.08314662       8.74281056       9.17704499      -0.00134552      -0.00542190       0.00461235      -8.72902382
H        9.65614922       8.77501695       8.25080901      -0.00132696      -0.00554773       0.00518027      -3.68228277
H       10.57276469       7.88963116       9.43600417      -0.00212391      -0.00686925       0.00504111      -3.78679792
Pb       6.67773916       6.57106237      12.98388790      -0.00118374      -0.00128541      -0.00007010      -4.66902361
I        9.89571429       6.69372648      12.81361437      -0.00118100      -0.00224246      -0.00076409      -1.90985981
I        6.58382195       9.83797749      12.81159722       0.00038220      -0.00088993       0.00299205      -1.96695635
I       19.89028666      19.97182561       9.71228647      -0.00293856      -0.00414378      -0.00034604      -1.92469230
C        9.90127020       9.51337137      16.35127574       0.00229248      -0.00167729       0.00268720      -8.90892424
H       -3.07831441       1.88450261       3.83964937       0.00952823       0.00102298       0.00695928      -3.44691845
N       10.64325905       9.78040962      15.29710669      -0.00054735       0.00242948       0.00593171      -8.67868617
H       11.33606426       9.11344124      14.96829517       0.00758786       0.00763903       0.00733250      -3.79162588
H       10.51416231      10.62946920      14.74330947      -0.00556770       0.00022212       0.00227729      -3.71474256
N        9.00629262      10.34806347      16.83341702      -0.00797847      -0.00898957       0.00027302      -8.64534715
H        8.80692044      11.24967492      16.39780495      -0.01534727      -0.01232668      -0.00232675      -3.68507058
H        8.44768222      10.10881370      17.65317987      -0.00599647      -0.01205534       0.00011202      -3.85379004
Pb       6.67941190      13.05685071      -0.05819753      -0.00154461      -0.00137303      -0.00036783      -4.66920813
I        9.92949891      13.13002843       0.09653760      -0.00038812      -0.00024130      -0.00445170      -1.97088536
I        6.76918276      16.33298338       0.20338541      -0.00647878      -0.00132792       0.00014533      -2.03443331
I        6.44547316      12.97001812       3.21729975       0.00222890      -0.00237269      -0.00021456      -1.90245524
C        9.97174031      16.31162638       2.80310444      -0.00323450      -0.00313093      -0.00719998      -8.94428485
H       10.01947834      16.16806251       1.72026392      -0.00415951      -0.00764313      -0.00649199      -3.45131180
N        8.83931991      16.04584145       3.41898045      -0.00052958       0.00205107      -0.00428540      -8.72327772
H        8.03467975      15.70403670       2.89929527      -0.00291561       0.00038678      -0.00136617      -3.78342782
H        8.72476776      16.14738398       4.42799464       0.00062040       0.00612621      -0.00433564      -3.67970875
N       11.05281193      16.73951700       3.42092172       0.00068700      -0.00123605      -0.01071901      -8.73420785
H       11.07213557      16.92002473       4.42494070       0.00162799       0.00227745      -0.01173116      -3.68851846
H       11.90189524      16.93010918       2.89605705      -0.00131128      -0.00615180      -0.01305519      -3.76357343
Pb       6.63276166      13.03701487       6.44095588       0.00124209      -0.00165506      -0.00011837      -4.64204257
I        9.87164770      13.24472813       6.52103843       0.00050359       0.00139785       0.00343501      -1.90800853
I        6.69573621      16.31414119       6.48181736      -0.00145796      -0.00137889      -0.00269570      -1.99235131
I        6.63358341      13.40416207       9.70531063       0.00077905      -0.00297435      -0.00011467      -1.99741805
C        9.62694386      16.32112550       9.88136340      -0.00751624      -0.00104753       0.00278750      -8.89550108
H        8.59899697      15.97732472      10.02509511      -0.00009126      -0.00413216      -0.00002496      -3.47052149
N        9.82775073      17.55365651       9.46645845      -0.00263825      -0.00118402       0.00179829      -8.65974250
H        9.03646954      18.16869907       9.28602459      -0.00582342      -0.00373407       0.00084491      -3.81893006
H       10.76504298      17.94562707       9.34804881      -0.00573677      -0.00004504       0.00295245      -3.72826797
N       10.60379581      15.47360748      10.12954435       0.00774892       0.00070142       0.00589323      -8.74410208
H       11.58005941      15.71183576       9.97402215      -0.00474810       0.00382002       0.01358396      -3.62838473
H       10.41485670      14.55189455      10.51054421       0.00020969      -0.00003952       0.00636940      -3.78012261
Pb       6.69532285      13.05934367      12.90384186       0.00037811      -0.00047063      -0.00017157      -4.63686847
I        9.98668207      12.83538537      12.94659392       0.00101023      -0.00145453       0.00149324      -2.05069403
I        6.80535306      16.37254177      12.85394291      -0.00128500      -0.00052964       0.00032523      -1.99530223
I        6.62307286      13.02733242      16.18852163       0.00448670       0.00113289      -0.00020693      -1.98491488
C        9.98067375      16.21927269      16.39844933      -0.00067927      -0.00224851       0.00211866      -8.91434226
H        9.96825909      15.43305368      17.15998005       0.00476409      -0.00272510       0.00029937      -3.46557703
N        8.99070040      17.08597145      16.38316649      -0.00193381      -0.00589708       0.00343834      -8.66366049
H        8.24551051      17.04040928      17.07667302      -0.00134958      -0.00940262       0.00593903      -3.82724096
H        8.98108422      17.86532769      15.72352581      -0.00653598      -0.00485462       0.00560430      -3.69757036
N       10.98266744      16.24811241      15.54732663      -0.00050548       0.00247284      -0.00211918      -8.65106872
H       11.02497148      16.93812961      14.79610495      -0.00547938       0.00277642       0.00035146      -3.68670769
H       11.72004138      15.54446120      15.59368675       0.00097745       0.00463712      -0.00294019      -3.83752175
Pb       6.70276334      13.20685186      19.43629754       0.00123743      -0.00072838       0.00097562      -4.66014319
I       -3.15408735       6.49789863       6.30057725       0.00108684      -0.00121595       0.00163170      -1.94240362
I        6.64019358      16.39734480      19.33043333      -0.00026429      -0.00111613      -0.00130555      -1.98587398
I       -6.10974590       6.69380682       9.68828794      -0.00024251       0.00458422      -0.00005470      -2.03648557
C       -2.71011128       9.85664166       9.70473333       0.00340352       0.00111303       0.00033389      -8.90448198
H       -1.79059514      10.44505075       9.64610436       0.00242382       0.00235836      -0.00368899      -3.47495816
N       -3.31490319       9.76251575      10.86904529       0.00924303      -0.00125525       0.00185945      -8.73317548
H       -2.93747639      10.22773735      11.69025224       0.01377498      -0.00356641       0.00165165      -3.78550137
H       -4.20411792       9.27656844      10.98221998       0.00910867      -0.00079020       0.00564710      -3.66662125
N       -3.16125297       9.28717618       8.60620265      -0.00094143       0.00202658       0.00059343      -8.71306816
H       -3.96633569       8.66096231       8.62051157       0.00050293       0.00049583       0.00406325      -3.67773629
H       -2.63629628       9.35327383       7.73766525      -0.00443401       0.00330324      -0.00080096      -3.79188669
Pb       6.77000815      19.59960547      13.01356154       0.00050678      -0.00017866       0.00018716      -4.62967524
I       10.03611493      19.43836244      13.39554577      -0.00064811      -0.00220069       0.00363594      -1.99076065
I       19.73835762      16.49035589      -0.36977548       0.00158905      -0.00060116      -0.00118750      -1.96227676
I        6.41971781      19.68656644      16.21657781       0.00065793       0.00190461      -0.00038948      -2.01069044
C        9.87613879      23.20060584      16.24609382       0.00331845       0.00638772      -0.00002885      -8.93811335
H       10.01232837      24.18339445      15.78625401      -0.00461526       0.00436898      -0.00127476      -3.44006012
N        8.73088194      22.57690692      16.05740026      -0.00419494      -0.00192621       0.00038242      -8.70666189
H        7.99054719      23.00420943      15.50689149      -0.00138131      -0.00008040       0.00178465      -3.78249953
H        8.56365922      21.63172876      16.40235636       0.00297283       0.00362255       0.00056913      -3.68177386
N       10.85890395      22.69995643      16.96199064      -0.00185284       0.00687265      -0.00419567      -8.66858055
H       10.74061339      21.83305024      17.49751574       0.00365838       0.00691630      -0.00217871      -3.75381920
H       11.73131424      23.21174919      17.06812156       0.00061697       0.00971619      -0.00400362      -3.76791983
Pb       6.69135735      19.67855094      19.52955113       0.00002146      -0.00071857      -0.00117359      -4.65487282
I        9.96477344      19.82079188      19.14642319       0.00078078       0.00420456      -0.00328613      -1.96150974
I       19.86443422      16.52699973       7.03241156       0.00047621      -0.00120366       0.00051925      -2.00870060
I       -6.35748916      12.54135801       9.71406672       0.00044291      -0.00153007      -0.00052362      -1.97779762
C       10.18239190       9.87052028      -3.04798413      -0.00062322      -0.00150556       0.00405619      -8.89294138
H       -1.83647157      15.99620298      10.48532709      -0.00142782       0.00294642       0.00680061      -3.47230333
N        9.99658781      11.09848372      -3.48786971      -0.00092284       0.00135387      -0.00199186      -8.71796731
H       10.73044925      11.79920455      -3.39578193       0.00127984       0.00043424      -0.00090202      -3.79842276
H       22.20682288      18.08408538       9.18242869       0.00350822      -0.00200534      -0.00404635      -3.68393630
N        9.30430121       8.90219698      -3.20080240       0.00202180       0.00271504       0.00447768      -8.73759772
H       21.57461711      15.70268009       9.25948967       0.00079691      -0.00066638       0.00261771      -3.70031593
H       -3.50121479      14.34236943      10.23847437      -0.00063680       0.00167212       0.00817857      -3.74550380
Pb      13.16378640      13.18584601       0.01665337       0.00046125      -0.00062529      -0.00016397      -4.65106177
I        3.50019916      19.70935860      13.10444182      -0.00007469       0.00050985       0.00256331      -2.03416908
I       -0.07921774       3.30906836       6.66068337       0.00005725       0.00006634      -0.00392764      -1.99428420
I       13.13190454      12.83187883       3.23442860      -0.00383383       0.00034334      -0.00052535      -1.95955898
C       16.28002330      16.65803836       3.07914714      -0.00059319      -0.00106405      -0.00715350      -8.89332841
H       15.98708725      17.48625558       3.73008904      -0.00260037       0.00469238      -0.00454585      -3.45660961
N       16.68653542      16.92696709       1.85517354      -0.00107134       0.00260856       0.00080228      -8.66926575
H        3.50639482       4.70157013       7.99825086       0.00221615      -0.00063719      -0.00441439      -3.84891773
H       16.96049329      16.18005782       1.21683924       0.00050210      -0.00238760      -0.00350983      -3.68399673
N       16.21305471      15.42986173       3.55250605      -0.00545261       0.00734839       0.00005092      -8.69464972
H       16.51234188      14.63498025       2.98845091      -0.00323885       0.00032092      -0.00147955      -3.68199452
H       15.92212729      15.23030246       4.50764088      -0.00786914       0.00515385      -0.00393538      -3.79485365
Pb      13.08172663      13.17915673       6.48037489       0.00010113      -0.00029223      -0.00013742      -4.66002045
I       16.41749366      13.34825755       6.52487403       0.00055131      -0.00495137      -0.00544283      -1.96767669
I       13.23359860      16.41487740       6.43382408       0.00455096      -0.00049222      -0.01185510      -1.95564118
I       13.39330459      13.21584631       9.70942475       0.00157897       0.00477833      -0.00052593      -1.97404153
C       16.81932408      16.47335442       9.81785555       0.00369649       0.00338955       0.00364157      -8.90922749
H       17.81390602      16.35232142       9.37878855       0.00295422       0.00724024       0.00239843      -3.46393298
N       16.54767048      15.85405700      10.94784156       0.00287996       0.00047786      -0.00072393      -8.64673617
H       17.26704739      15.33765767      11.44547076       0.00498560      -0.00092449      -0.00087779      -3.76026485
H       15.64754677      15.98210382      11.42609034       0.00374513      -0.00284443       0.00064364      -3.78093713
N       15.94336001      17.21813414       9.17467719       0.00059493       0.00599794       0.00509696      -8.68829684
H       15.00729516      17.37586015       9.54380221       0.00307579       0.00453191       0.00694901      -3.64944316
H       16.18853162      17.70835395       8.31385150       0.00132171       0.00851450       0.00686029      -3.83342383
Pb      13.33666301      13.05400982      12.92118790       0.00127304       0.00036015      -0.00011702      -4.65272053
I        3.40209268       6.06065332       0.26648647       0.00099779      -0.00086252      -0.00052815      -1.98997610
I       13.40515884      16.40847112      12.78303385       0.00017866       0.00058873      -0.00243896      -1.99432679
I       -0.02492192       6.56460516       3.15488475       0.00616144       0.00548407      -0.00075406      -2.00262814
C        3.31292621       9.55697898       3.33544810      -0.00038896      -0.00606565      -0.00206480      -8.89500323
H        3.29000801       8.76053113       4.08563392      -0.00539426      -0.00661469      -0.00399572      -3.47094506
N        2.41914471      10.51828640       3.41908044      -0.00759781      -0.00384308      -0.00103259      -8.67442316
H        1.71100355      10.51314387       4.15133663      -0.00693119      -0.00913376      -0.00491286      -3.82224259
H        2.41156677      11.30092687       2.76391862      -0.00410807      -0.00454147       0.00068617      -3.68563889
N        4.23197080       9.50128477       2.39606041      -0.00051958       0.00197997       0.00470724      -8.66050882
H        4.30350849      10.21872224       1.67328710       0.00307053       0.00268012       0.00580564      -3.69515073
H        4.90673536       8.73719053       2.37759520       0.00333581       0.00104190       0.00399252      -3.83687783
Pb      13.33732674      19.69344133      13.03108993      -0.00044815       0.00103936      -0.00095615      -4.63837210
I       16.53164457      19.38141732      13.13356742      -0.00087077      -0.00150368       0.00034099      -1.95544108
I       13.91451374      22.90776544      12.69056534       0.00280243      -0.00040306      -0.00667249      -2.01949733
I       13.48102913      20.13332994      16.23664621       0.00321554       0.00185833      -0.00086623      -1.97383558
C        3.41448467      16.17213451       3.29417953       0.00342809       0.00006609      -0.00018435      -8.89369156
H       15.94656432      22.12674118      15.72583117       0.00490703       0.00083049      -0.00817282      -3.45922092
N       17.16612183      23.80791023      15.67914304       0.00123646       0.00180605       0.00457246      -8.74279345
H        3.90654361      10.74032255      21.18156402       0.00672579       0.00861004       0.00718725      -3.76519077
H       -8.53896269       4.61188444       9.66363574      -0.00075024       0.00295069       0.01288855      -3.63798974
N        3.45017246      16.03167807       4.60294618      -0.00309569      -0.01049957      -0.00446742      -8.67240927
H        3.91826749      16.71560829       5.19947047      -0.00156809      -0.01234853       0.00310933      -3.72553415
H        2.98685287      15.25620971       5.07154666      -0.00148877      -0.01188458      -0.00881206      -3.79369932
Cs       3.46829315      16.28441279       9.80031110       0.00022188      -0.00325704      -0.00227601      -3.65451181
