233
Lattice="-12.957396986651146 6.351727325886291 13.017959588757243 13.11604327292129 6.668741413988977 13.017959588757243 13.195366416056363 13.17897578392661 -6.508979794378622" Properties=species:S:1:pos:R:3:forces:R:3:energies:R:1 energy=-1065.9516398198068 stress="-9.74092974706909e-05 0.00036563097850562015 -0.00036459130860222444 0.00036563097850562015 -0.00023622734580044 -0.000207234806935844 -0.00036459130860222444 -0.000207234806935844 -0.0002753077151295499" free_energy=-1065.9516398198068 pbc="T T T"
Pb      -6.37923957       6.27890651      12.98453241      -0.00066746       0.00025697       0.00108970      -4.64046402
I       -3.13699268       6.04071267      13.34846684      -0.00111101      -0.00087095       0.00302699      -2.02251282
I       -6.34236058       9.55671795      12.83983603       0.00204716       0.00062931       0.00177635      -2.01723119
I        6.65778023      19.61548042       9.73796975       0.00131735      -0.00405544       0.00069649      -1.97232418
C       -3.30128352       9.98195007      16.29488351      -0.00187460       0.00270970       0.00092998      -8.90509559
H       -3.97215660      10.84476945      16.34195025      -0.00325302       0.00178062       0.00079941      -3.47689840
N       -2.36074962       9.86951033      17.20716501      -0.00505809       0.00186328       0.00412250      -8.65382940
H       -2.26317734      10.56637645      17.94299989      -0.00830421       0.00066061       0.00562038      -3.80939493
H       -1.66564910       9.12102386      17.16718611      -0.00374856       0.00303650       0.00462329      -3.72320263
N       -3.48386933       9.10815745      15.32788410       0.00271240       0.00511875      -0.00163191      -8.66404883
H       -2.90035488       8.27575522      15.23792757       0.00390684       0.00583808      -0.00148698      -3.68583452
H       -4.22953364       9.22929808      14.64275718       0.00459913       0.00566401      -0.00378485      -3.84078931
Pb       0.34784305      19.51321644       6.50561823      -0.00035979       0.00097701      -0.00016853      -4.62050198
I        3.57063114      19.32168401       6.71795118      -0.00091267       0.00338500       0.00025074      -1.99392882
I       12.89729970       9.89992097      12.93204849       0.00204586       0.00060589      -0.00041492      -2.00441470
I       13.35360589      13.12806296      -3.30266971      -0.00294862      -0.00323834       0.00001964      -2.01501220
C        3.38515930       2.68535830       3.36006145       0.00566020      -0.00346654      -0.00541969      -8.92248854
H        3.50228318       1.60435709       3.47310823      -0.00514016      -0.00950005      -0.00969869      -3.46928916
N        2.16703446       3.17768366       3.31606543      -0.00555005      -0.00686005      -0.00371882      -8.70144912
H        1.36864967       2.54753305       3.35897729      -0.00197396      -0.00412281      -0.00707041      -3.78690725
H        1.96749418       4.17748749       3.24151125      -0.00043678      -0.00655611      -0.00171168      -3.69782429
N        4.47603091       3.41654102       3.28285915      -0.01003269      -0.01536786       0.00003351      -8.77279722
H        4.45656546       4.43055195       3.18775942       0.00023221      -0.00906112       0.00411871      -3.65139136
H        5.38756258       2.97144382       3.32161975      -0.00209772      -0.01189810      -0.00190299      -3.74362177
Pb       0.04536740       6.42098905       6.50550183      -0.00056226      -0.00111851       0.00053481      -4.67099774
I        3.43695044       6.18688264       6.55534470      -0.00078557      -0.00315167       0.00363833      -2.02721937
I        0.30661763       9.72340586       6.48297356       0.00474990      -0.00034924       0.00120942      -2.03332504
I       -0.01593208       6.57407597       9.74437816      -0.00750000      -0.00415597       0.00065354      -1.89538332
C        3.35867960       9.57841110       9.99199892      -0.00247207      -0.00546088       0.00425316      -8.88807895
H        3.84044339       9.88273505      10.92638683      -0.00678149      -0.00726839       0.00697116      -3.44260601
N        2.13589032       9.99922156       9.74005571      -0.00046707      -0.00330914      -0.00132345      -8.65152894
H        1.61690445      10.55438029      10.41508325      -0.00291500      -0.00342992      -0.00310098      -3.79358961
H        1.66407554       9.79720771       8.85343625       0.00346160      -0.00150661      -0.00386653      -3.75158166
N        4.04058609       8.81992745       9.15577403       0.00056172      -0.00551370       0.00681756      -8.64527821
H        3.60385324       8.39982346       8.33274715       0.00370969      -0.00514380       0.00498807      -3.69982077
H        4.97250514       8.48096196       9.39260509      -0.00081216      -0.00658439       0.01080444      -3.83338241
Pb       0.15193639       6.54526791      12.90505159      -0.00282550      -0.00033448      -0.00011394      -4.64241871
I        3.34106618       6.37034166      12.95267235      -0.00095352       0.00105483      -0.00333336      -1.94193603
I       -0.19532149       9.77800970      12.74686708      -0.00514104      -0.00062686      -0.00412294      -2.00282373
I       13.08314518      20.05560859       9.75685923      -0.00240029       0.00206784       0.00030655      -2.04906927
C        3.40270525       9.91338418      16.25002410      -0.00137949      -0.00050318      -0.00285688      -8.90838507
H        2.61616728      10.63804719      16.02427001      -0.00240034      -0.00142260      -0.00212997      -3.43213909
N        4.65800429      10.31730282      16.23349364      -0.00206371       0.00163515      -0.00130434      -8.70557698
H        4.91531599      11.28846395      16.06195883      -0.00374017       0.00221822      -0.00031657      -3.80853552
H        5.41131521       9.68625541      16.50440621      -0.00123849       0.00300909      -0.00049478      -3.67245849
N        3.06475308       8.66735903      16.51540969       0.00054407      -0.00153459      -0.00528697      -8.64176118
H       16.96690610      21.14419365      10.22835091       0.00175347      -0.00084003      -0.00698557      -3.70450372
H       15.28675310      21.53659666      10.00739747       0.00095818      -0.00290784      -0.00570428      -3.85676590
Pb       0.23684441      13.01932736       6.55031209       0.00068512       0.00095842       0.00017353      -4.63035958
I        3.47097309      13.12047104       6.75575338      -0.00003977      -0.00055998      -0.00359695      -1.97016309
I        0.60899289      16.26812510       6.55131387      -0.00128152       0.00045034       0.00160471      -2.03013679
I        0.28956207      13.24509100       9.76932778       0.00117139      -0.00006532       0.00022993      -1.97038469
Pb       0.08780943      13.02968560      12.99825492      -0.00190892      -0.00047576       0.00106574      -4.62959317
I        3.35549295      12.93543018      13.14515681      -0.00157589      -0.00634751       0.00263026      -2.00863772
I        0.29951525      16.28534181      12.63486349      -0.00151086      -0.00111867       0.00159034      -2.04646857
I       -0.24458577      13.20684321      16.23682954      -0.00134515       0.00418080       0.00031923      -2.01272168
C        3.67963042      16.25874404      16.04790761       0.00437070       0.00003471      -0.00451282      -8.90425475
H        4.57472790      15.99173714      15.47748649       0.00353824       0.00306707      -0.00714351      -3.45484024
N        2.65265146      15.43514959      16.01665987       0.00672690      -0.00290649      -0.00236593      -8.70214826
H        2.67965212      14.59423773      15.44381903       0.00790732      -0.00264051      -0.00285358      -3.80207531
H        1.84366767      15.56789909      16.62485460       0.00729841      -0.00494323      -0.00128732      -3.69056526
N        3.68846193      17.38210144      16.73352054       0.00295944      -0.00031982      -0.00393092      -8.63493500
H        2.84790886      17.74103594      17.18668307       0.00333480      -0.00294061      -0.00135971      -3.69310025
H        4.50508970      17.99552016      16.71710502       0.00174241       0.00133293      -0.00484159      -3.85614100
Pb       0.33008281      13.06178428      19.51024757       0.00027239       0.00127899       0.00055658      -4.66933670
I        3.50978123      13.06520488      19.33080254      -0.00061468      -0.00407776      -0.00516042      -1.88816821
I       13.29612297       9.94874100       6.17083130       0.00523970       0.00035368      -0.00056160      -1.96755491
I        0.64045433      13.32493363      22.73149001       0.00376717       0.00601771       0.00005034      -2.01933060
C        3.69997436      16.46323313      22.84007944       0.00969876       0.00428907      -0.00322702      -8.93351643
H       17.38392423      10.90938401      10.00570138       0.01628584      -0.00009431      -0.01122608      -3.43779031
N        3.70661969      15.41436017      23.63493029       0.00345508       0.01085379       0.00505897      -8.67319944
H       -8.73699521       8.67407108      11.37695959       0.00402281       0.01240969       0.00478355      -3.79496694
H        3.02530107      14.65946611      23.52512295      -0.00013960       0.01360275       0.01021715      -3.71788989
N       15.81522403      10.25436075       8.82024918       0.00875086       0.00266317      -0.00255292      -8.66207038
H        2.15643552      15.89709026      21.62307299       0.00350440       0.00606440       0.00394365      -3.67808768
H       15.86248848      11.07065752       8.21037237       0.01203250      -0.00145317      -0.00760854      -3.84079789
Pb       6.62934573       6.45516517      -0.04522123      -0.00202017       0.00053921       0.00214126      -4.66306168
I       -3.14701804      12.84452641      13.00429915      -0.00180277       0.00223620      -0.00047104      -1.89030501
I        6.64997821       9.75841701       0.21690254      -0.00237145       0.00037641       0.00309904      -2.02355368
I        6.62002097       6.38155516       3.26743138      -0.00499450      -0.00418325       0.00212922      -2.00746547
C        9.75966025      10.12214137       3.22653211      -0.00592515       0.00069938      -0.00138111      -8.93303494
H        9.04113672      10.94556759       3.24605235      -0.00930292      -0.00215742      -0.00307118      -3.42808746
N        9.64629469       9.17079704       4.12864831      -0.00381842       0.00069316      -0.00135859      -8.66247709
H        8.89222062       9.19320792       4.81458176      -0.00475680      -0.00165575      -0.00228141      -3.84030232
H       10.31290253       8.39897314       4.17952856      -0.00169744       0.00246881      -0.00072616      -3.70116873
N       10.69517039      10.13047472       2.29853592      -0.00425913       0.00435317       0.00037608      -8.69374977
H       11.41068273       9.40398700       2.26380046      -0.00160125       0.00688605       0.00148198      -3.69372907
H       10.75031355      10.88932983       1.62184548      -0.00614921       0.00433202       0.00021442      -3.81676684
Pb       6.73137919       6.38873990       6.47183361      -0.00151292       0.00019880       0.00207009      -4.65732652
I        9.96966312       6.46612148       6.65706413      -0.00081532       0.00250542      -0.00044748      -1.97079825
I        6.55385849       9.69657375       6.23814957      -0.00415047       0.00034287      -0.00199159      -2.05787512
I        7.08826251       6.74501704       9.75676914       0.00382153       0.00126250       0.00100668      -2.06090442
C       10.15515620      10.06973613       9.69233677       0.00541962       0.00049350      -0.00332278      -8.92583077
H       10.81472945      10.92047076       9.88715573       0.00889251      -0.00158870      -0.00611217      -3.43009634
N        9.99467886       9.17009424      10.63891848       0.00485877       0.00229192      -0.00173214      -8.66992580
H       10.53844281       9.22042610      11.49837036       0.00689423       0.00209062      -0.00300200      -3.81315398
H        9.32107892       8.40710795      10.54749595       0.00353785       0.00322821       0.00018046      -3.71743001
N        9.55442539       9.99877503       8.52121005       0.00208041       0.00127775      -0.00159126      -8.66750011
H        8.97640809       9.20000911       8.26448895      -0.00065000       0.00259790       0.00050976      -3.66609173
H        9.67565933      10.73875701       7.82704726       0.00244578       0.00045795      -0.00248043      -3.85373655
Pb       6.62419290       6.50468127      13.00192558      -0.00034386      -0.00001874       0.00017314      -4.66173340
I        9.92351634       6.40363209      13.12837101      -0.00051477       0.00106913      -0.00152401      -1.98498103
I        6.58429793       9.78843407      12.87948885      -0.00077982      -0.00079698      -0.00145596      -1.98347680
I       19.60050119      19.78086234       9.74000903       0.00066846      -0.00006941       0.00010548      -2.03886480
C        9.58241475       9.62201074      16.18411404      -0.00181113      -0.00308396      -0.00146903      -8.88537586
H        8.66663046       9.11750310      16.50527453       0.00162891      -0.01039849      -0.00470429      -3.45980421
N        9.65029652      10.07745598      14.95003145      -0.00341616       0.00287062       0.00075820      -8.64841694
H        8.85238797       9.98584975      14.31733698      -0.00242268       0.00099699      -0.00030588      -3.85583112
H       10.52900156      10.40627767      14.54653829      -0.00651548       0.01347052       0.00392511      -3.70627791
N       -2.55244059       3.08113569       4.03592587      -0.00285991      -0.00048499       0.00026638      -8.72678353
H       -1.75278754       3.68846068       3.85253198      -0.00562368       0.00311485       0.00259609      -3.68918983
H       -2.61337837       2.66099750       4.95859560      -0.00168038      -0.00459245      -0.00173127      -3.76430096
Pb       6.67478026      13.03619079      -0.03782501      -0.00117466       0.00075663       0.00128428      -4.65432758
I        9.98455646      13.11997829      -0.05939388      -0.00114609      -0.00040381      -0.00165947      -1.99583963
I        6.80529806      16.27941043      -0.29709393       0.00066020      -0.00003254      -0.00063487      -1.96019417
I        6.33292389      13.44326704       3.20871075       0.00153428       0.00630172       0.00017361      -2.04857180
C       10.13609018      16.23289040       3.22910412       0.00320945      -0.00224998       0.00240700      -8.89824586
H       11.07313045      16.51584707       2.74108450       0.00735049      -0.00727700       0.00786710      -3.45944553
N       10.02769007      16.39156159       4.53161575      -0.00326863      -0.00200675       0.00180318      -8.61720451
H       10.82315136      16.70544753       5.08714385      -0.00483550      -0.00539823       0.00577340      -3.84966094
H        9.14695273      16.22229449       5.02186365      -0.00619315       0.00105876      -0.00257928      -3.72536041
N        9.16195511      15.75693343       2.48192233       0.00491222       0.00352725      -0.00336726      -8.65634150
H        8.30717048      15.37017747       2.88955163       0.00093078       0.00755577      -0.00826019      -3.72704689
H        9.27774829      15.63127774       1.48127552       0.01041377       0.00220682      -0.00247157      -3.78171254
Pb       6.65998848      12.96497684       6.47110307       0.00000862       0.00049136      -0.00033459      -4.63004414
I        9.94944221      12.95389325       6.28265276       0.00060651       0.00024763       0.00153107      -1.97339296
I        6.71175204      16.21979188       6.46685040      -0.00209522       0.00061522       0.00374741      -2.03630241
I        6.63966152      13.10536387       9.68055203      -0.00353518       0.00021998       0.00024049      -1.99839989
C       10.05085024      16.15006299      10.02586669       0.00450849      -0.00504694       0.00308417      -8.89653524
H       10.04805418      15.45448961      10.87072865       0.00675544      -0.00717173       0.00122748      -3.48060213
N        9.20640424      15.93217782       9.04142857      -0.00173225      -0.00001157       0.00712152      -8.66920221
H        8.54167258      15.16078730       9.08194676      -0.00321708       0.00143908       0.00862098      -3.82269624
H        9.14529803      16.56674563       8.24541257      -0.00308666       0.00130597       0.00846141      -3.68190016
N       10.91198774      17.14420192      10.03508365       0.00740679      -0.00779724       0.00082340      -8.66497756
H       10.90636201      17.86119746       9.30759695       0.00590944      -0.00581608       0.00289737      -3.71249615
H       11.51949734      17.29315087      10.83690385       0.01221436      -0.01205359      -0.00190654      -3.79801653
Pb       6.65903310      13.08573280      12.97082326      -0.00175089      -0.00109039       0.00013129      -4.63324321
I        9.89314754      13.24693733      12.84692282      -0.00106805      -0.00420452       0.00071626      -1.96458398
I        6.39216843      16.27846314      12.67011446      -0.00680893      -0.00093360       0.00264732      -2.02279062
I        6.75226842      13.40764462      16.19672950       0.00042853       0.00051962      -0.00002401      -1.96322356
C       10.00870883      16.46972462      16.53253563       0.00159366      -0.00156904       0.00689672      -8.90900091
H        9.59261233      16.45707815      17.54415727      -0.00073894      -0.00995597       0.00563368      -3.44643726
N       11.27928284      16.16768764      16.36402090       0.00441899       0.00957415       0.00905189      -8.66166476
H       11.87939997      15.98031773      17.16604828       0.00409275       0.01210094       0.00992897      -3.80873103
H       11.71718230      16.16802839      15.43702617       0.00542281       0.01252783       0.00964892      -3.74644251
N        9.19974535      16.76037151      15.53156716       0.00215605      -0.00350393       0.00601657      -8.72570606
H        9.55664090      16.90460999      14.58836006       0.00442513       0.01050049       0.00904833      -3.65245043
H        8.24296150      17.05609017      15.70740870      -0.00089871      -0.01366973       0.00476713      -3.77629316
Pb       6.76489473      13.08397850      19.47754716      -0.00054665      -0.00061992      -0.00092379      -4.67379226
I       -3.09871330       6.54591549       6.51804522      -0.00050327       0.00592643      -0.00693951      -1.89151344
I        6.88174295      16.32260210      19.62156926      -0.00586446      -0.00035918       0.00022977      -1.96014715
I       -6.19870854       6.24087290       9.73490463      -0.00141382      -0.00180511       0.00000270      -1.93755808
C       -3.31643541       9.69196486       9.51610380      -0.00445369       0.00018130      -0.00134337      -8.90719342
H       -3.99504507       9.59156326       8.66315662      -0.00696481       0.00256202       0.00033587      -3.47680609
N       -2.65733900      10.82251596       9.66027881       0.00103779      -0.00299761      -0.00410340      -8.69250920
H       -2.75997627      11.57569648       8.98034674       0.00303539      -0.00313763      -0.00465423      -3.81399069
H       -2.09694733      11.00856673      10.49188492       0.00558275      -0.00583380      -0.00644368      -3.68618508
N       -3.20174684       8.67529634      10.34507675      -0.00746924       0.00030911      -0.00072149      -8.73928815
H       -2.51008956       8.68791641      11.09450705      -0.00639406      -0.00175407      -0.00160686      -3.67588055
H       -3.75560198       7.83161421      10.21225559      -0.01158488       0.00280014       0.00115311      -3.77049518
Pb       6.78698661      19.47642490      12.93550251      -0.00044949      -0.00107855       0.00166319      -4.64345348
I       10.06552312      19.35980769      12.92160613      -0.00122784      -0.00308884       0.00125765      -1.93198033
I       20.06183998      16.38147933       0.06419524      -0.00041576      -0.00037134       0.00055094      -2.00295644
I        6.72639129      19.45736674      16.27145293       0.00325653      -0.00051796       0.00029513      -2.01316900
C        9.93934095      22.98076536      16.28812815       0.00111475       0.00075863      -0.00152614      -8.91254377
H        9.11823503      23.69987651      16.21151854      -0.00001863      -0.00026150       0.00116586      -3.46263028
N       10.82646006      23.15580456      17.24495490       0.00230651       0.00019038      -0.00245666      -8.64058003
H       10.71342640      23.90761758      17.92727876       0.00236902      -0.00107248      -0.00114475      -3.85739187
H       11.60151467      22.50572957      17.37828096       0.00323417       0.00085711      -0.00473807      -3.67871546
N        9.99662002      21.99879975      15.41589176       0.00127209       0.00269202      -0.00350863      -8.65527778
H       10.73010245      21.28902162      15.45985127       0.00167222       0.00306998      -0.00548291      -3.71005553
H        9.29995743      21.91712446      14.67704071       0.00016226       0.00315923      -0.00269909      -3.82766074
Pb       6.81622937      19.57841237      19.58761433       0.00025077      -0.00061435      -0.00042426      -4.67622769
I       10.09591009      19.74031674      19.61982836      -0.00016210      -0.00256536       0.00031395      -1.96506056
I       19.85513845      16.47299618       6.34116059       0.00434534      -0.00016856       0.00143748      -1.95365815
I       -6.23898726      13.06345364       9.78017854      -0.00851491      -0.00541669       0.00103514      -1.93308001
C        9.76919020       9.78607020      -3.21910774      -0.00605631      -0.00045677      -0.00024274      -8.91243033
H        8.85785295       9.47160407      -3.73498862      -0.00746462       0.00200809       0.00090116      -3.44442247
N        9.77453381       9.82484198      -1.90212247      -0.00255257      -0.00526115      -0.00011876      -8.65637277
H        8.94190392       9.59713263      -1.35885247      -0.00127660      -0.00682767       0.00112374      -3.82794284
H       10.63354309      10.03097159      -1.38680017      -0.00111542      -0.00793975      -0.00154467      -3.72368311
N       -2.13531241      16.46332239       9.07441713      -0.00757202       0.00149157      -0.00168897      -8.75193285
H       -1.28188573      16.81914487       9.50258884      -0.00677603       0.00057860      -0.00277139      -3.66422891
H       -2.15994965      16.43528077       8.06191831      -0.01064152       0.00592771      -0.00172546      -3.73627631
Pb      13.32035448      13.18955541       0.01943553      -0.00038340      -0.00064952       0.00109249      -4.64411625
I        3.54115236      19.57978240      12.90359058      -0.00089553       0.00328120       0.00149185      -1.93280196
I       -0.14268781       3.22007259       6.79751752      -0.00212855      -0.00050606       0.00110002      -1.99399637
I       13.38963280      13.05269923       3.21917946      -0.00063452      -0.00153547       0.00064731      -1.91585654
C       16.63153393      16.39183489       3.59102665       0.00458184       0.00228192       0.00620215      -8.93017458
H       16.53279013      15.88028253       4.55255637       0.00485046       0.01218850       0.01022326      -3.45737066
N       17.84012033      16.57149646       3.09851239       0.00200472      -0.00330372       0.00207516      -8.73588954
H       18.65714714      16.25915234       3.61629620       0.00362382      -0.00023693       0.00379538      -3.77324138
H       17.99139816      16.95616442       2.16695416       0.00229628      -0.01335357      -0.00172383      -3.66319810
N       15.53982210      16.79279602       2.97572914       0.00212265      -0.00167747       0.00302958      -8.73999535
H        2.38454536       4.14822799       8.61650412       0.00184973      -0.00967738       0.00032196      -3.67943694
H       14.62765427      16.66817573       3.40506387       0.00410738       0.00250985       0.00645292      -3.77397664
Pb      13.19604281      13.19160588       6.42906552       0.00083492      -0.00001903       0.00104995      -4.66431506
I       16.48792409      13.29319972       6.63706198       0.00049931       0.00240104      -0.00461822      -1.98903331
I       13.33577745      16.44751823       6.13161298      -0.00174493      -0.00028988       0.00253848      -2.02546797
I       13.31084627      13.50850987       9.72524808       0.00524802       0.00269228       0.00144988      -1.97922603
C       16.61922544      16.72795156       9.89602368       0.00305056       0.00322834       0.00102307      -8.90420181
H       17.30993961      17.56489189       9.75590753       0.00278436       0.00419199       0.00582192      -3.45782906
N       16.75910391      15.97603220      10.96718251       0.00017059       0.00009100      -0.00096876      -8.68822945
H       17.50175310      16.15982176      11.64248507      -0.00190149      -0.00159663       0.00174039      -3.83504963
H       16.17323267      15.15850178      11.13682385       0.00065987      -0.00126432      -0.00588667      -3.66564159
N       15.67907479      16.53467931       8.99386675       0.00611264       0.00536848      -0.00266892      -8.69154240
H       15.02291101      15.75329182       9.06678133       0.00579372       0.00541593      -0.00641386      -3.71288216
H       15.62620990      17.12196452       8.16537161       0.00838714       0.00791602      -0.00092960      -3.77877655
Pb      13.14018212      13.13351233      12.94096334       0.00021680       0.00020154       0.00112007      -4.66831037
I        3.27160767       6.19963513       0.00373238      -0.00088080       0.00028880       0.00209694      -2.00507977
I       13.22789899      16.41443810      13.17989498      -0.00042646       0.00062313       0.00524959      -2.03751482
I       -0.04358601       6.08637923       3.22002144       0.00018246      -0.00356392       0.00075579      -2.00920744
C        3.22984111       9.73449800       3.06258795      -0.00248143      -0.00315871      -0.00271888      -8.88509402
H        2.68075326      10.19679890       2.23772138      -0.00472107      -0.00854596      -0.00427657      -3.46403975
N        3.41531684       8.42824587       3.04158928       0.00096740      -0.00229045       0.00310615      -8.70493500
H        3.14275302       7.86551965       2.23552341       0.00184204      -0.00655232       0.00576864      -3.82872220
H        3.90063096       7.94590418       3.79636474       0.00460629       0.00231736       0.00393113      -3.65239676
N        3.66487318      10.50279115       4.04120830      -0.00374472       0.00304685      -0.00697943      -8.70625310
H        4.30710055      10.15076061       4.75777735      -0.00372222       0.00766153      -0.00479205      -3.75084822
H        3.48208922      11.50018432       4.04847301      -0.00708197       0.00220661      -0.01152857      -3.71592820
Pb      13.35547102      19.73049688      13.07794976      -0.00060143       0.00148195      -0.00012866      -4.64458638
I       16.56280014      19.45547273      12.98076406      -0.00130686       0.00215432      -0.00067982      -1.92722050
I       13.60496933      22.96693766      13.05713363      -0.00138636       0.00067001       0.00006570      -1.97705120
I       13.21145514      19.98350796      16.28910185       0.00177462       0.00331144      -0.00000833      -1.98925795
C        3.16613886      16.48589938       3.11457679      -0.00186177       0.00304825      -0.00147425      -8.92448767
H       15.37902146      23.77207189      16.12837540      -0.00463898      -0.00078272      -0.00262654      -3.46877871
N       16.75619182      22.73151020      14.98058155       0.00102370       0.00549030      -0.00131540      -8.71116107
H       16.25602543      22.92970935      14.11716217       0.00201343       0.00452455      -0.00180093      -3.77462505
H        4.46048444      15.45928200       1.91044027       0.00431430       0.00970339      -0.00056002      -3.69351824
N        3.73430540      16.21586706       4.27002903      -0.00245947       0.00526844      -0.00124431      -8.68619570
H        4.56786426      15.63068604       4.33043451      -0.00012381       0.00835305       0.00001542      -3.70662082
H        3.34376876      16.56715097       5.14036522      -0.00479319       0.00350883      -0.00144110      -3.79203149
Cs       3.49844040      16.19671842       9.81262552      -0.00276206      -0.00133324      -0.00155394      -3.68029090
