233
Lattice="-12.957396986651146 6.351727325886291 13.017959588757243 13.11604327292129 6.668741413988977 13.017959588757243 13.195366416056363 13.17897578392661 -6.508979794378622" Properties=species:S:1:pos:R:3:forces:R:3:energies:R:1 energy=-1065.9741977854096 stress="4.657863419478817e-05 0.00023498238742827943 -0.0002643190285616711 0.00023498238742827943 -2.8962529516810768e-05 0.0002768358927683906 -0.0002643190285616711 0.0002768358927683906 -8.346381282002138e-05" free_energy=-1065.9741977854096 pbc="T T T"
Pb      -6.57225301       6.54170431      13.04032578      -0.00054665       0.00046998      -0.00037032      -4.62310616
I       -3.19504709       6.58863402      12.95504176       0.00053512       0.00413353       0.00047674      -2.03939521
I       -6.31940096       9.73297643      12.70228877       0.00108225       0.00033312      -0.00030038      -1.96416486
I        6.42443945      19.72702490       9.83656823      -0.00212824      -0.00239152      -0.00011004      -1.99676138
C       -3.17228087       9.72211400      16.48575870       0.00466633      -0.00079835       0.00275859      -8.90619281
H       -3.58504871      10.08961405      17.42958740       0.01159959      -0.00195921       0.01096735      -3.44761599
N       -2.48038084      10.55778178      15.73895701       0.00132697      -0.00093861       0.00735093      -8.71321171
H       -2.32394541      11.51754033      16.03179707       0.01164673      -0.00221633       0.01001155      -3.74930246
H       -1.95289833      10.24386681      14.91959499      -0.00337336       0.00117383      -0.00024328      -3.72949476
N       -3.39388464       8.46775484      16.14505677      -0.00619084       0.00560586       0.00202906      -8.66280090
H       -3.14362379       8.10155057      15.22177061      -0.01142743       0.00521482      -0.00264395      -3.74585636
H        9.29094621      21.02233103      10.25517045      -0.00597188       0.00280615       0.00077137      -3.78368682
Pb       0.11872042      19.44849697       6.44838839      -0.00173995      -0.00081656      -0.00032736      -4.63317319
I        3.42454741      19.92574873       6.40743125      -0.00044915       0.00252857      -0.00481695      -2.02825975
I       12.79043030       9.80099190      12.82834829      -0.00713330      -0.00083411       0.00248743      -1.96014482
I       13.18992196      13.08716260      -3.32582191       0.00170470       0.00115541      -0.00108136      -1.99411489
C        3.45329407       3.36853001       3.12760717       0.00287419       0.00348702      -0.00608842      -8.93675308
H        4.21802952       3.46404029       2.35085191       0.00274686      -0.00128368      -0.00678523      -3.43189122
N        2.38455281       2.64360362       2.86776002       0.00284584      -0.00143735      -0.00445636      -8.67433466
H        2.29524009       2.13882650       1.98815984       0.00527132      -0.00557704       0.00076636      -3.81944658
H       14.84287752      15.69840995      -2.94738513       0.00242973       0.00390192      -0.00318619      -3.68201525
N        3.64463767       3.98301160       4.27533115       0.00093640       0.01062602      -0.01130052      -8.66940755
H        2.96377282       3.91071129       5.03460053       0.00050250       0.01376118      -0.00994660      -3.72500353
H        4.47930472       4.54182821       4.43632816      -0.00084563       0.01321659      -0.01423008      -3.80296806
Pb       0.17953859       6.47099509       6.46441683      -0.00037234       0.00174464      -0.00075478      -4.64815828
I        3.34942905       6.98657068       6.63637714       0.00017197       0.00122177      -0.00168234      -1.91861707
I       -0.14209947       9.75423403       6.09185468      -0.00314826       0.00029134      -0.00616747      -2.07714039
I        0.37054288       6.38142822       9.74427581      -0.00031779       0.00295886      -0.00011244      -2.02557917
C        3.25311125       9.82225829       9.59766431      -0.00018417      -0.00073124      -0.00375739      -8.94073472
H        2.56868307       9.89313101       8.74855205       0.00211362      -0.00258560      -0.00291049      -3.43380169
N        3.95607903      10.88343300       9.92970538       0.00122213       0.00069534      -0.00357718      -8.68012099
H        3.88894034      11.73924256       9.38320273       0.00145067      -0.00264810      -0.00437207      -3.80231179
H        4.62948195      10.86057795      10.69659192       0.00073109      -0.00044168      -0.00328999      -3.70442413
N        3.33445942       8.67710354      10.24207408      -0.00070637      -0.00276516       0.00043444      -8.68093880
H        3.95742065       8.55530474      11.03907975      -0.00185819       0.00111382       0.00064165      -3.68115698
H        2.75567904       7.88330251       9.97416703      -0.00004378       0.00039590       0.00070583      -3.83059307
Pb       0.09547759       6.45298324      13.07048086       0.00082749       0.00177458       0.00012859      -4.66489988
I        3.30996266       6.19575746      12.91160604       0.00066167       0.00071846      -0.00024866      -1.98192953
I        0.13851030       9.73911348      13.13625282       0.00135256       0.00136451      -0.00007931      -1.98012078
I       13.54312786      19.63574315       9.74739995       0.00018195      -0.00132547       0.00006650      -1.94446555
C        3.54540298      10.04495288      16.24633014       0.00118493       0.00226904      -0.00197526      -8.91742134
H        3.97643732      10.99818023      15.93032520       0.00027569      -0.00057012      -0.00191645      -3.44022539
N        3.53550201       9.75349836      17.53089136       0.00242150       0.00196645       0.00417219      -8.67707261
H        3.86367098      10.42724648      18.22088088       0.00374279       0.00461029      -0.00085105      -3.81508648
H       16.42239954      22.02216307      11.36794224       0.00189681       0.00577174       0.00317761      -3.71608765
N        3.06723376       9.23011929      15.32546633      -0.00131750      -0.00223152       0.00445257      -8.76512507
H        2.52577723       8.40084578      15.57333767       0.00050413      -0.00036854       0.00554447      -3.69298527
H        3.10776238       9.47567694      14.34350147      -0.00350006      -0.00248125       0.00175654      -3.70864339
Pb       0.10135884      13.03189017       6.48254399       0.00075842      -0.00111994       0.00037467      -4.63941893
I        3.31682524      12.96415023       6.86312619       0.00040931      -0.00401298      -0.00364570      -2.03799863
I        0.42757060      16.19828053       6.98002250       0.00209440      -0.00044273      -0.00125300      -2.03335624
I        0.09378673      12.65428650       9.70991025       0.00228780       0.00242930       0.00016352      -1.94415007
Pb       0.11377144      13.07808185      12.95231307      -0.00045571       0.00100980       0.00076984      -4.64493426
I        3.41983130      13.52231732      12.93171124      -0.00107151      -0.00012782       0.00046613      -2.03530168
I        0.05180861      16.29291920      12.68962828       0.00141695       0.00149662      -0.00151965      -1.94945545
I        0.17794942      13.32155613      16.23357201       0.00388261       0.00042129       0.00031591      -1.92943616
C        3.44499740      16.22356240      16.08123054       0.00221581       0.00451034       0.00296437      -8.88911411
H        3.34354205      15.74417557      15.10231576      -0.00290631      -0.00106158       0.00209765      -3.46148391
N        4.18780201      15.62928613      16.99075547       0.00474739       0.00460161      -0.00293293      -8.63591402
H        4.70789888      14.77755651      16.77640223       0.00230501       0.00303829       0.00055375      -3.85105153
H        4.36097768      16.04742352      17.90546729       0.01235989       0.00943677      -0.00251401      -3.68235997
N        2.80291553      17.35158108      16.30249419       0.00626662       0.00233353      -0.00182520      -8.63654263
H        2.87422504      17.84062259      17.20003501       0.00797536       0.00688299      -0.00118518      -3.75833373
H        2.27793142      17.81016444      15.56379863       0.00270531       0.00341863      -0.00039741      -3.77153242
Pb       0.16606895      12.89610789      19.40477456       0.00116801      -0.00075268       0.00074304      -4.66439405
I        3.43997996      12.93623826      19.53994213       0.00002395       0.00251613       0.00424711      -1.96727273
I       13.08801858       9.87173572       6.69970630      -0.00019329      -0.00032843      -0.00173172      -2.02751268
I        0.40914841      12.55608287      22.74505963      -0.00310885      -0.00343422      -0.00033639      -2.01999668
C        3.44294267      16.34432826      23.13662977      -0.00523100       0.00315295       0.00454168      -8.91968778
H        3.73311786      16.05511025      24.15070729      -0.01486590       0.00300143       0.00843485      -3.46193521
N       16.40192793      11.27129752       9.80694960       0.00377698       0.00025027       0.00299603      -8.65839300
H       16.58458438      11.96935698      10.52851365       0.00254633       0.00199079       0.00209750      -3.80274589
H       16.26443291      11.59844622       8.84549697       0.00852214       0.00030247       0.00080362      -3.74540313
N        3.12016592      15.39029500      22.28664970      -0.00248415       0.00081007       0.00568233      -8.78355071
H        2.74384725      15.59938017      21.36322250       0.00857041       0.00079618       0.00007534      -3.65658067
H        3.12451720      14.41599528      22.56662033      -0.01058596       0.00273240       0.00778250      -3.72763258
Pb       6.63783874       6.60516315       0.06842132      -0.00028401      -0.00001771      -0.00046178      -4.67221811
I       -3.09631670      13.04429284      13.03681238      -0.00037852      -0.00113441      -0.00142727      -1.87472583
I        6.61800307       9.89686051       0.46908331       0.00587928      -0.00025605       0.00341514      -2.02181444
I        6.51624647       6.43319570       3.34760389       0.00206886       0.00046558      -0.00056914      -1.98295106
C       10.14884878       9.89556370       3.33737529       0.00305816      -0.00220021       0.00267102      -8.91724262
H       11.14010151      10.04459233       3.77418297      -0.00180947       0.00022487       0.01128034      -3.44351677
N        9.76002805      10.69758833       2.36830560       0.00751659      -0.00052780       0.00150806      -8.66157006
H       10.35407835      11.45806266       2.04824251       0.00806160       0.00215893       0.00887153      -3.77658808
H        8.87485772      10.54348666       1.87399608       0.01088003      -0.00043901      -0.00340117      -3.75718710
N        9.39492081       8.92444458       3.81160937       0.00222005      -0.00699844      -0.00717936      -8.67532852
H        8.47495868       8.71883160       3.42307551       0.00719092      -0.00981665      -0.01568497      -3.66209357
H        9.71933727       8.30599117       4.55596592      -0.00126660      -0.00733485      -0.00571141      -3.84679360
Pb       6.58860073       6.66148838       6.60771854       0.00009864      -0.00096450       0.00039111      -4.65366460
I        9.86852129       6.31376953       6.42339022       0.00021013      -0.00238718      -0.00095811      -1.99891205
I        6.74507618       9.89330178       6.71188037       0.00375596      -0.00025757       0.00378059      -1.96741446
I        6.88590674       6.77981708       9.86745541       0.00025810      -0.00561665      -0.00026259      -2.00144409
C       10.21327543      10.02142278       9.82712412       0.00083691      -0.00503604       0.00505316      -8.92195944
H       11.24890665      10.29134178      10.05387251       0.00450364      -0.00719350       0.00183374      -3.45953121
N        9.37846162       9.88025577      10.83665452       0.00543139      -0.00036913      -0.00290053      -8.78793648
H        9.68458769      10.08373420      11.78265169       0.00302613      -0.00165493       0.00212152      -3.73077809
H        8.44270064       9.49775920      10.71240167      -0.00025849       0.00245197       0.00070366      -3.64795980
N        9.87124199       9.84928074       8.56947627       0.00437563      -0.00502642      -0.00054699      -8.63523171
H        8.89395995       9.76152732       8.26633420       0.00391306      -0.00335174       0.00060432      -3.75534993
H       10.57826275       9.93719204       7.83907238       0.00453157      -0.00791650       0.00219596      -3.80675485
Pb       6.56871775       6.51619085      13.14031294      -0.00016833      -0.00150953      -0.00019045      -4.63896021
I        9.81043498       6.22036969      12.92225330       0.00005741      -0.00716164      -0.00079503      -1.94301934
I        6.19295840       9.85316489      12.98232738       0.00057583      -0.00081385      -0.00449188      -2.06597329
I       19.64616747      19.85928603       9.84759243      -0.00173344      -0.00124134       0.00042650      -1.92957937
C        9.80197545      10.03226342      16.01502829      -0.00126011       0.00602230      -0.00024366      -8.88764964
H       10.08893177      10.46131328      15.05090940      -0.00327532       0.01783031       0.00452115      -3.47818847
N        8.56510112       9.60394997      16.16794372      -0.00163750      -0.00256894      -0.00790440      -8.72151522
H        7.89008763       9.66791121      15.40957425       0.00061940       0.00290746      -0.00784986      -3.78561095
H        8.21349644       9.29759124      17.07574591      -0.00018262      -0.01482768      -0.01227680      -3.69704493
N       -2.40256711       3.29882419       3.94436863      -0.00450417       0.00020833      -0.00066065      -8.71151584
H       -2.57146729       2.78005118       4.80618078      -0.00358972      -0.00797372      -0.00466597      -3.68007329
H       -1.48755853       3.72498415       3.81801094      -0.00493230       0.00516045       0.00521776      -3.78653357
Pb       6.64018432      13.19331191       0.09914078      -0.00000842      -0.00065968       0.00052986      -4.64528389
I        9.88874720      13.45590510      -0.29039989      -0.00029097       0.00196619      -0.00016577      -2.02051494
I        6.86264269      16.38507826       0.15427525       0.00008459      -0.00070318       0.00165709      -1.96507020
I        6.54382001      13.13884469       3.35995358       0.00262111      -0.00049213       0.00046766      -2.03802533
C       10.12353329      16.37449208       3.61560069       0.00045595       0.00195581       0.00557723      -8.89187533
H       10.82963421      15.80372537       4.22665068      -0.00206634       0.00663405       0.01232697      -3.47339435
N        8.86151339      15.99909774       3.61485001       0.00196410       0.00075102      -0.00092583      -8.70707486
H        8.56032752      15.18523572       4.14461429      -0.00033684       0.00207691       0.00087380      -3.78552188
H        8.14830180      16.53067607       3.11549228       0.00368157      -0.00319345      -0.00771836      -3.68368610
N       10.58246117      17.38644487       2.91413767       0.00426394       0.00040284       0.00284340      -8.62390800
H       -3.20397572       4.75132886       8.78753876       0.00652052      -0.00251456      -0.00107303      -3.72162241
H       -1.64932283       4.52593405       9.51657550       0.00274371       0.00134593       0.00755686      -3.82806185
Pb       6.59417295      13.15597950       6.69833716       0.00078814      -0.00045818      -0.00008223      -4.63228584
I        9.77560485      13.38410619       6.40968801       0.00068365       0.00328390       0.00242858      -1.93804286
I        6.21307200      16.41501838       6.86150757      -0.00084201       0.00007770      -0.00089650      -2.04456882
I        6.74455588      13.27710574       9.87001497      -0.00183873       0.00167647       0.00001262      -1.94527800
C       10.20887446      16.46152519       9.62334171       0.00056704       0.00201711       0.00268995      -8.90201581
H       11.04492214      16.27605040       8.94205289       0.00593934       0.00513748       0.00077304      -3.45841810
N        9.38720201      17.45085035       9.33647266       0.00635633       0.00675594      -0.00395049      -8.66553521
H        9.52466805      18.02191965       8.50196991       0.00810049       0.00737530       0.00178573      -3.84933214
H        8.57393733      17.66182093       9.91453367       0.00183827       0.00537504      -0.00315338      -3.66401720
N       10.07749302      15.69463855      10.68259622      -0.00146558       0.00205181      -0.00906197      -8.66116996
H        9.30515019      15.81531497      11.34318561      -0.00636464      -0.00053150      -0.00583439      -3.73317017
H       10.73020031      14.93377927      10.85598284      -0.00481414      -0.00155111      -0.00436349      -3.79225796
Pb       6.65594336      13.16725239      13.09127511      -0.00204025      -0.00014138      -0.00040435      -4.63967516
I        9.89142678      12.96416231      13.22161376      -0.00148479       0.00552974      -0.00126325      -1.95463427
I        7.00750369      16.40048835      12.84744909      -0.00392660      -0.00026576      -0.00003323      -2.05102930
I        6.80072797      13.12392031      16.36492829      -0.00446718      -0.00628342       0.00011344      -2.01772068
C        9.77470788      16.39072232      16.00001757      -0.00588696       0.00036915      -0.00129071      -8.90948881
H        8.96500930      16.25169428      15.27696223      -0.00284384       0.00114873      -0.00427807      -3.45904690
N       10.65694706      17.34024765      15.76722469      -0.00874444       0.00485129       0.00780176      -8.68753119
H       10.57425206      17.94002795      14.94642513      -0.00800374       0.00894756       0.01044162      -3.83819332
H       11.43627794      17.51767469      16.40013088      -0.01110176       0.00360103       0.01078889      -3.66099088
N        9.81646718      15.60490574      17.05458743      -0.00641468      -0.00631861      -0.00488176      -8.67314495
H       10.56296309      15.68182067      17.74868212      -0.00880534      -0.00761936      -0.00283690      -3.72440563
H        9.13003281      14.86540717      17.18247690      -0.00443036      -0.00860024      -0.01159865      -3.78503727
Pb       6.70485161      13.12524077      19.69711422       0.00012437      -0.00108822       0.00146529      -4.67209768
I       -3.15145661       6.43343616       6.65481443       0.00023135      -0.00068947       0.00093530      -1.96507814
I        6.52308585      16.38504991      19.82612738      -0.00111819      -0.00050871       0.00322286      -1.96414642
I       -6.39723026       6.12124607       9.85761947       0.00371666       0.00027471       0.00066213      -1.94650874
C       -3.11829279       9.66086782       9.87217521      -0.00218191      -0.00068093       0.00448675      -8.90428276
H       -3.77115108       9.15111946      10.58634347       0.00155428      -0.00886952       0.00277911      -3.45135034
N       -3.65900157      10.50137925       9.01503012      -0.00902855       0.00116129       0.01093855      -8.69246868
H       -4.65910832      10.67620158       9.00903047      -0.00971409      -0.00392318       0.01411413      -3.77971231
H       -3.10523443      11.02190396       8.33148647      -0.01338547       0.00653945       0.01081883      -3.70579551
N       -1.82532603       9.39830061       9.89698553      -0.00150871       0.00614372       0.00096087      -8.72225013
H       -1.17146565       9.92601403       9.32062452      -0.00434768       0.01632614       0.00611749      -3.65983684
H       -1.42519029       8.76663443      10.58395992       0.00344717       0.00388515      -0.00388731      -3.77485270
Pb       6.62129180      19.65742343      13.08008073      -0.00130127       0.00036266      -0.00000488      -4.63647612
I        9.92026370      19.76569340      12.93806218      -0.00068159       0.00133477       0.00039604      -2.01422530
I       19.45506491      16.55193632       0.29190058      -0.00483767      -0.00004819      -0.00359061      -1.97930925
I        6.64580115      19.63773789      16.34476784      -0.00076513      -0.00193136       0.00082859      -1.94643157
C        9.97052620      22.43469152      16.31156679      -0.00368618      -0.00823866       0.00260821      -8.93366542
H       10.10422087      21.38907441      16.02328992      -0.00430130      -0.00895445       0.00457153      -3.45214633
N        8.74413685      22.90037745      16.42832717      -0.00057153      -0.00567145       0.00069456      -8.70761947
H       20.90669163      15.93637043       3.23842760      -0.00315144      -0.00527769       0.00136559      -3.78363576
H       21.50551895      17.54155600       3.56146656      -0.00045881      -0.00540331      -0.00018681      -3.71915969
N       11.04727417      23.16149125      16.52401204      -0.00125478      -0.00907738       0.00228135      -8.76206884
H       10.99155442      24.10967636      16.89362712       0.00010560      -0.00962919       0.00106170      -3.66099444
H       11.97012979      22.75159981      16.41368185      -0.00207322      -0.01211221       0.00383497      -3.75231539
Pb       6.67943295      19.63054294      19.54896786      -0.00017516      -0.00079990       0.00131206      -4.64736794
I        9.91760804      19.68006049      19.33773852      -0.00003235      -0.00331407       0.00602421      -1.96582072
I       19.31961470      16.49742584       6.80886315      -0.00202326      -0.00077187       0.00086975      -1.96388365
I       -6.11859729      13.36943079       9.85178802      -0.00258637       0.00507763       0.00098292      -1.98944668
C       10.02794659      10.09898703      -3.17642576       0.00116885       0.00501874      -0.00163679      -8.91969519
H       10.79776295      10.87680561      -3.17516800      -0.00011719       0.00521063      -0.00278979      -3.45045347
N       -2.77417140      15.42126012       9.03691572      -0.00277097       0.00625392      -0.00323161      -8.69680066
H       -1.96237769      15.36041188       8.42609457      -0.00399919       0.00782327      -0.00684868      -3.80673851
H       -3.46425911      14.67094333       8.98994983      -0.00185184       0.00650290      -0.00257884      -3.68134617
N        8.99461723      10.24195625      -2.37321201       0.00263690       0.00259209       0.00337775      -8.70119286
H        8.26357192       9.53174188      -2.31665101       0.00388591       0.00321407       0.00423442      -3.69259430
H        8.91814886      11.05641263      -1.76941335       0.00563274       0.00190727       0.00489877      -3.80039833
Pb      13.15153890      13.15324315      -0.12904983       0.00013224       0.00169608      -0.00133784      -4.63106402
I        3.41503724      19.11302689      12.98592434      -0.00063934       0.00174702      -0.00107817      -2.02586425
I        0.57239540       3.23323404       6.36537728       0.00258587       0.00189343      -0.00416558      -2.02143591
I       12.75502595      13.13652707       3.15447358       0.00016721       0.00031091      -0.00088195      -2.03959609
C       16.43948896      16.25356925       3.00545220       0.00221579       0.00089617      -0.00511867      -8.92232870
H       16.67756839      15.64434612       2.13002118      -0.00445279       0.00283097      -0.00824739      -3.44077576
N       17.19527404      17.30025128       3.26055862      -0.00357080      -0.00888929       0.00330553      -8.69205716
H        4.77527902       4.35610378       9.15399151       0.00273765      -0.00319727       0.00144119      -3.78741138
H       17.03267863      17.89405237       4.07853046       0.00202016      -0.00915013       0.00443683      -3.73872065
N       15.41793577      15.89483600       3.75758846      -0.00450242      -0.00522361      -0.00274094      -8.68785776
H       15.11175446      16.45091947       4.55710485       0.00108442      -0.01053790      -0.00149964      -3.68871888
H       14.83700836      15.09475723       3.51376610      -0.00363884      -0.00203179      -0.00944989      -3.80974910
Pb      12.96073490      13.12162362       6.48331518       0.00041394      -0.00028445       0.00028451      -4.64842747
I       16.30257191      12.91111123       6.45619157       0.00081462      -0.00137895       0.00143932      -2.05244262
I       13.02392908      16.40645896       6.52767422       0.00565694       0.00049715      -0.00001712      -2.00400347
I       12.91552086      13.29276515       9.72436081      -0.00038538      -0.00090478      -0.00053405      -2.01857567
C       16.17406481      16.41112471      10.05629007      -0.00586002      -0.00903123      -0.00376838      -8.90893205
H       15.45220044      16.44428252      10.87806008      -0.00582269       0.00070310      -0.00183362      -3.46837642
N       17.18410347      17.25341681      10.07424429       0.00210987       0.00656558       0.00796817      -8.68123760
H       17.26254984      17.96206411      10.79994859      -0.00656678      -0.00166713      -0.00092786      -3.80833632
H       17.87481550      17.27547312       9.32209846       0.00091090      -0.00263514       0.00624762      -3.70585886
N       15.99148231      15.51679310       9.10622785       0.00283142      -0.00037176       0.00978425      -8.70735141
H       16.61747444      15.46219115       8.30368410       0.00853132      -0.00654549       0.00401281      -3.65688435
H       15.18261227      14.89707679       9.12429404       0.00333565      -0.00536831       0.00112919      -3.83049971
Pb      13.15466019      13.06288491      13.02604471      -0.00164230      -0.00037222      -0.00026978      -4.65850356
I        3.30548336       6.50618384       0.01082384      -0.00125371      -0.00056458       0.00268943      -1.97416416
I       13.28713884      16.34731518      13.05435433      -0.00418806      -0.00074944      -0.00143601      -1.94915095
I        0.04084594       6.17082820       3.22765241      -0.00366966       0.00071687      -0.00028459      -1.96329120
C        3.33086739       9.90466691       2.99311155      -0.00093740       0.00020527      -0.00396924      -8.90520403
H        3.87083841       9.82385111       2.04493817      -0.00137828      -0.00071731      -0.00491646      -3.45853685
N        2.24471153       9.18031101       3.16446985      -0.00157907       0.00277602      -0.00393045      -8.66377855
H        1.88208540       8.59071780       2.42075444      -0.00395202       0.00368198      -0.00386377      -3.78067001
H        1.69308726       9.23289891       4.02386971      -0.00212722       0.00429360      -0.00369620      -3.74340845
N        3.80967841      10.71487822       3.91300801       0.00208917      -0.00137856      -0.00482982      -8.65050709
H        3.33831572      10.85770913       4.80566614       0.00217551       0.00065120      -0.00436223      -3.65858763
H        4.63738319      11.28678888       3.73619209       0.00270881      -0.00249958      -0.00499196      -3.86469709
Pb      13.19252924      19.67082416      12.96764506      -0.00128009      -0.00141627      -0.00012083      -4.66612618
I       16.49379548      19.73781633      13.03408940      -0.00019664      -0.00125337      -0.00026997      -2.06027132
I       13.25809107      22.87456899      12.67591243       0.00271954      -0.00083952      -0.00152667      -1.89262876
I       13.27274657      20.03250068      16.25563459      -0.00008742      -0.00336774      -0.00014140      -1.96965189
C        3.57330441      15.99676233       3.27685950       0.00227632       0.00005771      -0.00135106      -8.89367049
H        4.23350387      15.12775497       3.35189997       0.00706347       0.00353860      -0.00245285      -3.46882768
N       15.96245023      22.80572470      15.20684590      -0.00301473      -0.00505588       0.00219730      -8.65144873
H       15.96623287      22.09144488      14.48065249      -0.00243806      -0.00672404       0.00258112      -3.83313580
H        2.10053144      10.39381407      21.61793461      -0.00729505      -0.00913637       0.00321514      -3.71417115
N        3.55307559      16.85306024       4.27548672       0.00211651       0.00191355      -0.00276924      -8.63660646
H        2.94126589      17.66980398       4.26100058      -0.00064329      -0.00077810      -0.00196003      -3.69698672
H        4.17808268      16.74409443       5.07569051       0.00525557       0.00498394      -0.00401908      -3.84323632
Cs       3.40377926      16.34847291       9.88799160      -0.00041334      -0.00212101       0.00078570      -3.66037378
