233
Lattice="-12.957396986651146 6.351727325886291 13.017959588757243 13.11604327292129 6.668741413988977 13.017959588757243 13.195366416056363 13.17897578392661 -6.508979794378622" Properties=species:S:1:pos:R:3:forces:R:3:energies:R:1 energy=-1065.86157080252 stress="-0.00019870852100230548 -2.153278193975928e-05 0.00042164013723992654 -2.153278193975928e-05 -0.00032640784881708993 0.00019006267773746195 0.00042164013723992654 0.00019006267773746195 -0.00034966197794742245" free_energy=-1065.86157080252 pbc="T T T"
Pb      -6.48362408       6.47356841      12.91940396      -0.00033942      -0.00089211       0.00235356      -4.63356186
I       -3.24429216       6.67340783      12.94056546      -0.00026693      -0.00190847       0.00165884      -1.91023189
I       -6.39195497       9.73195325      13.04868052       0.00433532      -0.00036974       0.00284875      -2.03852895
I        6.94664821      19.19401379       9.70125198       0.00229559      -0.00377103       0.00090840      -2.07422410
C       -2.97674107       9.67999630      16.26084760       0.00295454       0.00229052       0.00306437      -8.90134544
H       -2.14002393      10.15756773      16.77603051      -0.00129026      -0.00005956       0.01183691      -3.44717550
N       -3.84890066      10.44520317      15.63448146       0.00718872       0.00496428       0.00083891      -8.70686855
H       -3.71703863      11.45044006      15.59016051       0.00662330       0.00521685       0.00720112      -3.73184673
H       -4.57718756      10.05252660      15.02859782       0.00869439       0.00778501      -0.00276727      -3.75727323
N       -3.08043239       8.36561934      16.30761832       0.00389953       0.00199816      -0.00495332      -8.72138742
H        9.33285825      21.05097997       9.37004858       0.00984932       0.00343041      -0.01696679      -3.68749038
H       10.80304801      20.97597459      10.28458114      -0.00012886      -0.00002767      -0.00190598      -3.78055247
Pb       0.18625050      19.50625557       6.63151193      -0.00066494      -0.00021913      -0.00115970      -4.62922789
I        3.47416562      19.47071705       6.77776861      -0.00063369       0.00078705       0.00020700      -2.00178543
I       13.39691956       9.89938506      13.13434496      -0.00162105      -0.00058425       0.00014894      -2.01374581
I       13.27490041      13.08625463      -3.19228802      -0.00284294       0.00071008      -0.00105802      -1.98948260
C        3.37761276       3.15872101       2.92263162      -0.00053938      -0.00029312      -0.00665731      -8.91546579
H        2.98321699       2.97195907       1.91993061      -0.00099470       0.00443877      -0.00733413      -3.46199557
N        4.41290464       3.96105093       3.05362578       0.00005035      -0.00173466      -0.00340350      -8.65061779
H        4.86612764       4.36799175       2.24026921      -0.00060828       0.00234789      -0.00171106      -3.79153507
H        4.83957474       4.13562941       3.96567312       0.00241204      -0.00854567      -0.00313808      -3.72541869
N        2.78501121       2.57435277       3.94313074      -0.00070467      -0.00439326      -0.00914931      -8.71423475
H        3.13262810       2.68333795       4.89345120      -0.00087726      -0.00829788      -0.00866756      -3.62945282
H       15.19393584      15.12008457      -2.70204613      -0.00132805      -0.00312339      -0.01162953      -3.83579360
Pb       0.14688316       6.44907991       6.52004515      -0.00059612      -0.00090577       0.00012672      -4.65614937
I        3.34403526       6.22342073       6.45870687      -0.00053619       0.00150053      -0.00048305      -1.98051218
I        0.25979356       9.73786367       6.32462903      -0.00320382      -0.00048343       0.00180035      -2.00611577
I        0.05480068       6.79888840       9.82158059      -0.00221462       0.00032886       0.00153972      -1.95543474
C        3.65505464       9.64529511       9.80901716       0.00442457       0.00024325      -0.00410526      -8.90075641
H        4.56572757       9.20396510      10.22450800       0.00948605       0.00244441      -0.01346423      -3.45490981
N        3.04588149      10.58064853      10.50475936       0.00759962      -0.00362928       0.00356867      -8.65120976
H        3.42548323      10.90841860      11.38908414       0.01439643      -0.00567231       0.00125665      -3.76853328
H        2.18653433      11.03374558      10.17459380       0.00511646      -0.00346998       0.01067437      -3.76426011
N        3.22721488       9.22033440       8.63772607      -0.00425877       0.00144038      -0.00116793      -8.66549302
H        2.35870499       9.56122059       8.22048272      -0.00845693      -0.00013438       0.00670679      -3.71812656
H        3.69658965       8.46498500       8.14213904      -0.00600611       0.00418542      -0.00683503      -3.80317357
Pb       0.05933655       6.64576461      13.02231396      -0.00035204      -0.00173903       0.00123515      -4.65800033
I        3.28166790       6.80468711      12.89501291      -0.00111979      -0.00448929      -0.00156800      -1.90261052
I        0.02424546       9.80048604      13.42634685       0.00252109      -0.00050631       0.00237625      -1.95327577
I       13.48978913      19.36753660       9.85799446       0.00519552      -0.00291020       0.00303440      -2.03513315
C        3.50356386       9.73600021      16.44783906      -0.00164604       0.00198285       0.00683602      -8.88502331
H        4.17221554       9.16877587      17.10118029      -0.00472859       0.00829863       0.01520662      -3.46444761
N        2.21005820       9.49445630      16.51277300      -0.00116071      -0.00217666      -0.00175038      -8.69576398
H        1.83432372       8.79960493      17.15100538      -0.00385512       0.00113421       0.00020900      -3.77398629
H        1.54588373       9.95993868      15.89259637       0.00262039      -0.01252472      -0.01350407      -3.71321844
N        4.03048920      10.62516958      15.63299600       0.00139732      -0.00110105       0.00548827      -8.68399828
H        3.46309059      11.20376683      15.01025425       0.00388385      -0.00459134       0.00013881      -3.70741202
H        5.03199532      10.79813368      15.61772028       0.00076644       0.00331924       0.01286527      -3.78020402
Pb       0.12943101      12.97985332       6.50309653      -0.00179688      -0.00034351       0.00208688      -4.63982152
I        3.40467228      13.06567280       6.51558179      -0.00187876       0.00139287      -0.00074936      -1.99144823
I        0.40730025      16.24069262       6.75555937      -0.00189910      -0.00052246       0.00318448      -2.03465409
I       -0.03076651      12.46908775       9.79899147       0.00296181      -0.00487845       0.00155244      -2.08125730
Pb       0.10436702      13.01793632      13.08268642      -0.00012329      -0.00010061      -0.00049156      -4.63111264
I        3.35148997      13.28309359      13.11835484      -0.00071470      -0.00017366       0.00451227      -2.03689460
I        0.21910659      16.25428081      12.76255807       0.00152067      -0.00092932      -0.00892128      -2.02553360
I        0.14408719      12.93750266      16.32144879      -0.00642917       0.00516771       0.00016639      -2.02990354
C        3.28597821      16.06297046      16.26899710      -0.00017473      -0.00191292      -0.00049598      -8.90946475
H        3.78509528      15.09167443      16.31573707      -0.00360964      -0.00358411       0.00027641      -3.43810718
N        4.00018289      17.11802783      15.92251849       0.00376981      -0.00452832      -0.00029246      -8.72405541
H        4.97210157      17.02724399      15.64259690       0.00370439      -0.00799281       0.00070699      -3.78589632
H        3.55331522      18.01016089      15.72069877       0.00703204      -0.00323540      -0.00158203      -3.64085611
N        2.00934503      16.14012733      16.57980891      -0.00020213       0.00250177      -0.00176634      -8.63417262
H        1.51314520      17.03595442      16.59265984       0.00251412       0.00399241      -0.00229347      -3.74363054
H        1.47061866      15.29928339      16.78782258      -0.00287962       0.00435018      -0.00131900      -3.83903815
Pb       0.08470631      13.01829732      19.60561091       0.00050198       0.00009785       0.00038668      -4.65876344
I        3.38182012      13.31875500      19.78504580       0.00078095       0.00234670      -0.00038996      -2.00147509
I       12.83149641       9.90090693       6.62089127       0.00131142       0.00004321       0.00097978      -1.95560885
I       -0.08625422      13.23767951      22.86127827       0.00475814       0.00043097      -0.00003729      -2.01591040
C        3.36853569      16.41794978      22.77090047      -0.00235000       0.00429854      -0.00178915      -8.91193885
H       16.39554753      10.90322505      10.45473654      -0.00840507       0.00572366      -0.00303223      -3.45782968
N        3.60607337      16.63517809      21.49323035      -0.00219555       0.00371573      -0.00184466      -8.65571800
H        3.80048767      17.56796170      21.12962517      -0.00657178       0.00417992      -0.00291527      -3.81352942
H        3.58702445      15.85828376      20.82587888       0.00070057       0.00312734      -0.00117541      -3.72428515
N        3.05578290      15.22543617      23.24123535       0.00475354       0.00314989      -0.00023750      -8.72891174
H        2.94420675      14.43521723      22.60668246       0.01094417       0.00156322       0.00075844      -3.66167796
H        2.86150187      15.06742031      24.22638744       0.00400055       0.00345039      -0.00036616      -3.78091638
Pb       6.53533813       6.80187416      -0.10004499      -0.00159366       0.00008356       0.00115670      -4.65313090
I       -3.13525847      13.26793157      13.10826157      -0.00110400       0.00014222      -0.00716195      -2.01303882
I        6.34647477       9.92957427      -0.36636632      -0.00149547      -0.00026249       0.00274510      -1.92476976
I        6.36841922       7.12266862       3.25036296      -0.00000624       0.00339168      -0.00075370      -2.00715963
C       10.04414306       9.72769095       3.26245018      -0.00130704      -0.00507166       0.00083924      -8.93227437
H       10.86484423       9.00700319       3.19344821      -0.00717885      -0.01180163       0.00433936      -3.44859868
N        9.31100065       9.94885530       2.19212877      -0.00109814      -0.00588551       0.00058429      -8.66548673
H        9.45562321       9.40724137       1.34196280      -0.00596860      -0.01202721       0.00356462      -3.79664868
H        8.54454130      10.62569913       2.20997145       0.00125956      -0.00335070      -0.00126450      -3.71452059
N        9.84064686      10.33555128       4.41240687       0.00542036       0.00360602      -0.00267785      -8.67235763
H        9.08485163      11.01217448       4.52426221       0.01225332       0.01163927      -0.00673701      -3.68613364
H       10.46326751      10.17861408       5.20469662       0.00546015       0.00352739      -0.00274986      -3.82511692
Pb       6.66493413       6.54382379       6.48643165      -0.00102183       0.00021905      -0.00056906      -4.64881006
I        9.83192503       6.30326181       6.29898152      -0.00002497       0.00133545       0.00212591      -1.91353751
I        6.76784041       9.79240602       6.96192126      -0.00364323      -0.00043127       0.00381846      -1.99167363
I        6.53208044       6.17181194       9.71726919      -0.00161949      -0.00095218      -0.00094311      -1.99163484
C        9.88355658      10.00670063       9.63470496       0.00288480      -0.00106216      -0.00329410      -8.90504740
H        9.47236424      10.78976476       8.99042234       0.00662246      -0.00398572      -0.00917370      -3.45550169
N        9.23654292       8.86310415       9.72245253      -0.00145366       0.00204610       0.00340957      -8.70702598
H        8.37573698       8.71408338       9.20058492      -0.00114938       0.00172672       0.00312995      -3.78693299
H        9.50679004       8.15129044      10.40408439      -0.00475639       0.00542218       0.00840325      -3.69875664
N       11.00273674      10.25662259      10.28156664       0.00278381      -0.00067101      -0.00352365      -8.64315547
H       11.49752952       9.52539444      10.79225673      -0.00020020       0.00117214       0.00204361      -3.69427625
H       11.48894413      11.14785577      10.17367098       0.00549806      -0.00273182      -0.00767375      -3.84399555
Pb       6.52648377       6.69214385      12.95241030      -0.00280283       0.00031444      -0.00080963      -4.66661227
I        9.83704243       6.80868239      12.99584036      -0.00134496       0.00332903      -0.00167471      -1.94574906
I        6.53497866       9.92333461      12.69345971      -0.00974861       0.00011702      -0.00486774      -1.96244151
I       19.48877458      20.07439028       9.72601568      -0.00549028       0.00047036      -0.00017515      -2.01897711
C        9.93696255       9.75105684      15.97833333       0.00224576      -0.00113919      -0.00412797      -8.89715747
H        9.49631943       9.98119987      15.00427997       0.00726864      -0.00192291      -0.00645303      -3.43141434
N       -3.92701436       2.47048898       3.85790749      -0.00175315      -0.00178007      -0.00783487      -8.63677160
H        8.24303531       8.83282942      16.65218684       0.00015715      -0.00385001      -0.01291966      -3.82668926
H        9.66609759      15.26959737      -1.78877866      -0.00562436      -0.00088914      -0.00573919      -3.72022536
N       -1.93429280       3.44468880       3.19384857       0.00043392       0.00053432       0.00230306      -8.64921771
H       -1.49075657       3.31413902       4.10739373      -0.00334498      -0.00016644       0.00395335      -3.74802626
H       11.75463745      10.53407170      15.48413341       0.00332759       0.00156410       0.00519706      -3.81124691
Pb       6.56600356      13.13683610       0.06081874      -0.00055875      -0.00029825       0.00156524      -4.64652639
I        9.95631303      13.13003788      -0.03709002      -0.00144250       0.00015149      -0.00468624      -2.00629426
I        6.64958491      16.40043958       0.10089685      -0.00414928      -0.00070299       0.00405367      -1.96147823
I        6.96929868      12.74162915       3.27578738       0.00551446      -0.00087492       0.00079946      -1.98938530
C        9.84410649      16.51921528       3.33581996      -0.00241126       0.00375635       0.00010887      -8.89682800
H        9.05306864      17.10539001       2.85895763      -0.00205254       0.00605031       0.00255505      -3.44767050
N       10.86323476      16.12151259       2.60078000      -0.00009630       0.01053571      -0.00014163      -8.69617297
H       10.93779127      16.37984522       1.62133282       0.00209098       0.01857471       0.00217213      -3.76426900
H       11.55190998      15.45370962       2.95339567      -0.00054266       0.00846726      -0.00343659      -3.71289463
N        9.74159927      16.25085295       4.62091242      -0.00541788      -0.00589631      -0.00218321      -8.64414112
H       10.49609155      15.80187477       5.13959866      -0.00556441      -0.00727456      -0.00333526      -3.70254931
H        8.89981810      16.49510584       5.14422070      -0.00698936      -0.01041558      -0.00256846      -3.85186444
Pb       6.67797639      13.08309077       6.62438764      -0.00189804      -0.00184807       0.00171498      -4.63143195
I        9.91837647      13.23349697       6.87528646      -0.00175482      -0.00147140       0.00412134      -1.94568874
I        6.46116761      16.34484117       6.26606550       0.00016568      -0.00051896       0.00387888      -2.05499462
I        6.32356710      13.52563091       9.75756723      -0.00335458       0.00115842       0.00087857      -1.98384612
C       10.19420450      16.19826494       9.72677848       0.00478523      -0.00456066       0.00185825      -8.89962035
H       11.03009425      15.49292973       9.74260258       0.00160185      -0.00827773      -0.00432457      -3.46138282
N        9.30413679      16.13019694      10.69348594       0.00941671      -0.00342329       0.00615054      -8.65505046
H        9.37543937      15.41487378      11.41732215       0.00986743      -0.00563859       0.00387630      -3.83614150
H        8.48568865      16.73950358      10.71078793       0.01192535      -0.00035079       0.01162904      -3.69241257
N       10.12944345      17.06787757       8.74190458       0.00380380      -0.00139073       0.00477263      -8.65536925
H        9.39543788      17.77570936       8.69965040       0.00531264       0.00036650       0.00918624      -3.70384786
H       10.85279696      17.09357866       8.02418047       0.00059736      -0.00206363       0.00162924      -3.83986806
Pb       6.66216307      13.14924575      13.00148916      -0.00195626      -0.00075005       0.00043196      -4.63130445
I        9.91440683      13.21461161      13.02602786      -0.00122593      -0.00797932       0.00058686      -1.98009924
I        6.48195832      16.36688276      13.06726856       0.00408210      -0.00017637       0.00119986      -1.98354284
I        6.82107572      13.05399610      16.25272770       0.00052128      -0.00175899       0.00092371      -1.94604865
C       10.34847347      16.25963485      16.23930737       0.00454084       0.00250176       0.00327327      -8.89838881
H       11.32350291      15.96415564      15.84074550       0.00607452       0.00358923       0.00632956      -3.46701722
N        9.52080858      16.90666105      15.44552061       0.00594595       0.00081948       0.00054749      -8.68552656
H        9.80136553      17.18156317      14.50809301       0.00848100       0.00081371       0.00129017      -3.77582826
H        8.64906721      17.31092432      15.79309295       0.00500854       0.00088738      -0.00186367      -3.71752336
N       10.05667719      15.94362580      17.48239114       0.00135645       0.00246842       0.00259474      -8.63705798
H        9.13069589      16.12045499      17.89052405       0.00026491       0.00190973       0.00027828      -3.76882715
H       10.72680460      15.44305992      18.05909857       0.00080790       0.00436500       0.00474316      -3.77983190
Pb       6.69583893      13.11722900      19.50738284      -0.00119685      -0.00108852       0.00104821      -4.66516552
I       -3.16154942       6.23876983       6.69392312      -0.00015194      -0.00403170       0.00003027      -1.98053927
I        6.91466809      16.41095924      19.33262408       0.00030002      -0.00074923       0.00027809      -1.97554059
I       -6.37084763       6.54800405       9.74786505      -0.00163467      -0.00223778       0.00140223      -1.95486563
C       -3.34342243       9.42945712       9.84795859      -0.00472773      -0.00193373       0.00149710      -8.91777432
H       -4.15137230       8.69224268       9.88411574      -0.00129341      -0.00535333       0.00524862      -3.47204830
N       -2.61667913       9.49977074       8.75190733      -0.00504242      -0.00446092       0.00046484      -8.71051383
H       -2.74978695       8.82210421       8.00448942      -0.00301063      -0.00844470       0.00391106      -3.79355189
H       -1.82286807      10.13605851       8.67809140      -0.00758111      -0.00213874      -0.00265001      -3.67656364
N       -3.15682658      10.20650681      10.89339498      -0.00784396       0.00390059      -0.00317835      -8.73599993
H       -2.41216870      10.90316795      10.91505069      -0.01121804       0.00771933      -0.00676425      -3.68173947
H       -3.75294431      10.12139079      11.71249264      -0.00798136       0.00614294      -0.00265185      -3.77437854
Pb       6.77010687      19.59835981      12.91821284       0.00062333       0.00007032      -0.00076109      -4.63041528
I       10.03798028      19.62271903      12.92705637       0.00057661       0.00184161      -0.00379305      -1.95202324
I       19.48794801      16.45544553      -0.22681880       0.00136489       0.00050365      -0.00666389      -1.98125913
I        6.87748474      19.44998563      16.21653636       0.00385104       0.00033891      -0.00016133      -2.05528029
C        9.99052191      23.12587130      16.27524165       0.00009877       0.00497044       0.00099001      -8.90422738
H        9.36581972      24.01931794      16.35927911       0.00066246       0.00581419      -0.00056836      -3.46730708
N        9.39734258      21.95091056      16.21730816      -0.00172817       0.00581424       0.00000056      -8.73604350
H        8.38825220      21.85367407      16.25807267      -0.00163031       0.00727502      -0.00183350      -3.74606631
H        9.94322675      21.09304215      16.14883173      -0.00245945       0.00502036       0.00081242      -3.65565162
N       11.29875988      23.26257080      16.23768837      -0.00031902       0.00350174       0.00390129      -8.59767832
H       11.90112192      22.44398309      16.11741255      -0.00078604       0.00255643       0.00542226      -3.72896264
H       11.73901282      24.18603045      16.25200784       0.00113138       0.00298907       0.00420975      -3.87166707
Pb       6.84601408      19.66075709      19.57240849      -0.00157194      -0.00100520      -0.00147072      -4.65526327
I       10.03898815      19.81171125      19.74041778      -0.00184110       0.00102105       0.01272046      -1.91458533
I       19.83542591      16.59701378       6.72760387      -0.00210296      -0.00049690      -0.00774352      -1.99393495
I       -6.44700313      12.86896020       9.73201569      -0.01730596       0.00340606      -0.00090953      -1.94016680
C        9.82157470       9.94227433      -3.54960810      -0.00352367       0.00137130      -0.00726095      -8.89280677
H        9.33739384       9.56798211      -4.45716014      -0.00327419       0.00237980      -0.00784035      -3.45821829
N        9.19103076      10.84934426      -2.83361460      -0.00154695       0.00425509      -0.00929485      -8.65813515
H        8.27598874      11.19801384      -3.10939244       0.00045393       0.00765476      -0.01137787      -3.78549726
H        9.61158896      11.28572595      -2.00752875      -0.00186296       0.00266029      -0.00820787      -3.73982668
N       -1.95425805      15.81141840       9.79309117      -0.00612277      -0.00295275      -0.00479966      -8.65620252
H       -1.46676454      16.08748729      10.65180102      -0.00500654      -0.00199866      -0.00581764      -3.74817224
H       -1.49235362      15.12078799       9.20841992      -0.00817471      -0.00552281      -0.00344645      -3.76948022
Pb      13.20909354      13.11929394       0.04793054      -0.00164688      -0.00058167      -0.00122112      -4.64382637
I        3.50177995      19.40806604      12.93661483      -0.00017277       0.00095706       0.00199241      -1.98450604
I        0.06958394       3.20342799       6.37093276       0.00269563      -0.00103753       0.00022237      -2.01191856
I       13.23840478      13.13666268       3.32185279      -0.00926249      -0.00085845      -0.00137253      -2.03426465
C       16.37787440      16.56405222       3.03089250      -0.00032304       0.00121829      -0.00449601      -8.89063243
H       16.72087218      17.13503479       2.16283251      -0.00074363       0.00153365      -0.00443571      -3.45668008
N       15.33473526      17.00648337       3.69765906      -0.00084222       0.00005044      -0.00487642      -8.59809181
H       14.86274417      17.87704985       3.44169523      -0.00146687      -0.00021998      -0.00450316      -3.86880316
H       14.96001118      16.51747581       4.51467345      -0.00028795      -0.00013075      -0.00456917      -3.72266294
N       17.02563541      15.46272153       3.35502466       0.00067028       0.00185095      -0.00422436      -8.65027127
H       16.77839667      14.91532064       4.18612831       0.00107448       0.00151467      -0.00460263      -3.75792214
H       17.82162159      15.13920745       2.81334996       0.00129996       0.00275445      -0.00431252      -3.76830234
Pb      13.15091682      13.15688680       6.62505622      -0.00123332       0.00000488      -0.00158238      -4.65851844
I       16.45179518      13.43595864       6.45880609      -0.00214823      -0.00128810      -0.00970316      -2.01975819
I       13.09743473      16.41934930       6.51626391      -0.00220050      -0.00016326      -0.00389117      -2.03686516
I       13.19626601      13.25850771       9.83718271       0.00707271      -0.00247012      -0.00095470      -2.01246344
C       16.60511925      16.29131347       9.70585643       0.00389111      -0.00528762      -0.00196383      -8.92469629
H       17.35602964      15.49584901       9.75807364       0.00312053      -0.00617178      -0.00513331      -3.45386752
N       15.56722606      16.22358884      10.51254923       0.00888928      -0.00272630       0.00453210      -8.66673253
H       15.45821241      15.44189320      11.15367263       0.01215366      -0.00161008       0.00641160      -3.80509660
H       14.83667968      16.93866234      10.49787832       0.00898065      -0.00266432       0.00678469      -3.72056634
N       16.79138334      17.26645000       8.84339857      -0.00019227      -0.00722707      -0.00486664      -8.66068867
H       16.13954300      18.04750767       8.76505465       0.00078409      -0.00612669      -0.00180695      -3.67710363
H       17.60523261      17.26582312       8.22814128      -0.00316635      -0.00870751      -0.00876541      -3.84312743
Pb      13.17299595      13.16016136      13.13579367      -0.00159081      -0.00092655      -0.00012987      -4.65400300
I        3.31288792       6.45779428      -0.22854301      -0.00093742      -0.00235021       0.00919953      -2.00708943
I       13.21499730      16.42256188      13.35568060      -0.00284708      -0.00037721      -0.00225148      -2.01742333
I        0.14742991       6.52746597       3.31374151      -0.00045565       0.00099976       0.00041239      -1.91856205
C        3.18231121      10.01160139       3.36086285      -0.00374866       0.00239756       0.00364930      -8.94580513
H        2.38429045      10.75799735       3.30724820      -0.00727545      -0.00115965       0.00918394      -3.43196689
N        3.29920177       9.14994589       2.37336368      -0.00515387       0.00447762       0.00172517      -8.66438101
H        2.64528508       9.16117469       1.59367020      -0.00895862       0.00334086       0.00491636      -3.80255834
H        4.02927884       8.43354253       2.38104791      -0.00324355       0.00653955      -0.00259474      -3.72684253
N        3.97244635      10.01593194       4.41427955       0.00179372       0.00452779      -0.00061462      -8.66312966
H        4.76273754       9.37409730       4.48617505       0.00413770       0.00702610      -0.00508790      -3.68867895
H        3.86560948      10.72581143       5.14007184       0.00255642       0.00323890       0.00069170      -3.83816636
Pb      13.27353563      19.65024725      13.13151080       0.00028844       0.00024832       0.00239332      -4.66329324
I       16.52013204      19.92489187      13.31719113       0.00008426      -0.00123505       0.01639384      -1.93482883
I       13.43111346      22.92666776      13.13284568       0.00420554      -0.00012494       0.00334662      -1.98851656
I       12.80403523      19.84042011      16.33984459      -0.00950717      -0.00006348       0.00246726      -2.02049174
C        3.44023791      16.30715377       3.74692879      -0.00368829       0.00147050       0.01058270      -8.92647980
H        3.64243333      16.37185526       4.81884513      -0.00370544       0.00870193       0.00886688      -3.45645765
N        4.45882460      16.13015663       2.93406799       0.00301721      -0.00024076       0.01071149      -8.78094597
H        5.40198827      16.06950290       3.30198226      -0.00191944       0.00728922       0.01438642      -3.72253573
H       17.46225989      22.68063857      14.94610556       0.00313340      -0.00946754       0.01657544      -3.65261512
N       15.30847363      23.08681009      16.35939988       0.00280092      -0.00700092       0.00727690      -8.69629649
H       15.03668897      23.02467400      15.37382375       0.00105791      -0.00924041       0.00751801      -3.72823641
H       14.56883509      23.20053455      17.04840306      -0.00335122      -0.00668343       0.00651697      -3.76919779
Cs       3.50835695      16.42488910       9.79524667      -0.00115723       0.00217857       0.00369911      -3.65391026
