233
Lattice="-12.957396986651146 6.351727325886291 13.017959588757243 13.11604327292129 6.668741413988977 13.017959588757243 13.195366416056363 13.17897578392661 -6.508979794378622" Properties=species:S:1:pos:R:3 pbc="T T T"
Pb      -6.48565672       6.27144163      13.06505441
I       -3.20298950       6.03404891      12.98720531
I       -6.36671563       9.61907762      12.96660836
I        6.55504210      19.41063607       9.77759097
C       -3.27505016       9.98432529      16.13102720
H       -3.98728153      10.81260221      16.20716030
N       -2.28448439       9.93081561      16.99528343
H       -2.18065480      10.65071181      17.70853946
H       -1.58400382       9.18655787      16.95349545
N       -3.46318047       9.08818514      15.18568163
H       -2.81332689       8.31441992      15.04287174
H       -4.23318412       9.18259793      14.52092266
Pb       0.28707180      19.50561450       6.59290801
I        3.49250708      19.51257570       6.53714408
I       13.44814455       9.91230141      13.00344349
I       13.37005753      13.03785343      -3.24779911
C        3.58156906       3.28898239       3.45013607
H        4.42906461       3.60707241       4.06597821
N        3.19158526       4.07012132       2.46476780
H        3.66654436       4.94843305       2.27382562
H        2.41234468       3.81626110       1.85253473
N        3.00470449       2.14065497       3.73011266
H        2.18297051       1.80196891       3.22564321
H       16.50857322      14.74327830      -1.99504534
Pb       0.04823985       6.51209630       6.43573441
I        3.35215633       6.74092971       6.35672720
I       -0.33801604       9.78840208       6.45789171
I       -0.00681069       6.41712650       9.75900450
C        3.24487574      10.00199179       9.78329819
H        2.78410370      10.91784599      10.16497353
N        2.79491961       9.49788624       8.65397791
H        2.03761146       9.94402502       8.14075644
H        3.17643840       8.64215178       8.23946163
N        4.22257386       9.46330586      10.47934214
H        4.71739009       8.62100409      10.16851803
H        4.54094700       9.89092873      11.34531526
Pb       0.02855377       6.55279180      13.01224389
I        3.34275491       6.59043439      13.12375477
I       -0.12841981       9.75941030      12.92166188
I       12.87685292      19.94571915       9.75367565
C        3.69202258       9.83418735      16.14753760
H        4.58084271       9.88556043      15.51089760
N        2.81717182       8.87851280      15.91907464
H        2.96202245       8.20190420      15.16420397
H        1.98172883       8.76852681      16.49333461
N        3.54963355      10.73262245      17.09873652
H        2.76838022      10.68312241      17.75843470
H        4.24449812      11.46505416      17.22725547
Pb       0.12046796      12.99421620       6.53917678
I        3.36379435      12.91374211       6.88137613
I        0.35653872      16.22635046       6.98354033
I       -0.26420544      12.86259158       9.72216828
Pb       0.12836692      12.93896070      12.95316877
I        3.40348954      12.74206062      12.65871069
I        0.62471300      16.25201414      12.83918182
I        0.32200521      13.16270656      16.24109940
C        3.13851930      16.26443755      16.36607298
H        2.08407943      16.55375504      16.39271842
N        3.46792539      15.12874556      15.78806901
H        2.74894086      14.51633162      15.40853066
H        4.41485988      14.74027210      15.86003388
N        4.01910201      17.08101294      16.90589745
H        5.02060880      16.93118303      16.81054061
H        3.72561655      17.91948439      17.40643486
Pb       0.23272963      13.09283405      19.46803212
I        3.46179010      13.34478300      19.92307440
I       13.38197531       9.98438078       6.51200816
I       -0.29179224      13.11558411      22.76638675
C        3.48919580      16.31194116      22.60063308
H        3.00385927      15.81354804      21.75580250
N       -8.61106134       9.04216886      10.16274570
H       -8.26682219       8.13940079       9.83997187
H       -8.12333505       9.44579664      10.96911027
N       15.99478030      11.13691245       9.96093735
H       16.37583062      11.63327746      10.77130524
H       15.17117122      11.55914974       9.53111626
Pb       6.64249557       6.50809397      -0.04789707
I       -3.10713976      13.07812494      13.33599166
I        6.85194923       9.80034819      -0.22462654
I        6.32816367       6.40979186       3.18117256
C       10.13618582       9.68381432       3.42557620
H       10.96763852       9.06133424       3.08262517
N       10.34139610      10.49906958       4.44013101
H       11.24021162      10.50934605       4.92478910
H        9.57928197      11.03150365       4.85878639
N        8.98156915       9.58772897       2.79967552
H        8.20015700      10.19857844       3.03785539
H        8.86585310       8.93925065       2.02373222
Pb       6.61176167       6.55986470       6.43395174
I        9.91907779       6.45926639       6.30931440
I        6.89453596       9.79816268       6.33436597
I        6.47933290       6.58547545       9.70067241
C        9.64943231      10.09563194       9.78919744
H        8.87492617      10.86887191       9.78052749
N        9.72661021       9.29773413      10.83278838
H        9.06628125       9.38345246      11.60534648
H       10.40390695       8.53568120      10.87527701
N       10.45308991      10.00864831       8.74974937
H       11.20983586       9.32579670       8.71563334
H       10.39570274      10.68820319       7.99581145
Pb       6.62361582       6.52843864      13.09412030
I        9.90809811       6.56875544      13.32233612
I        6.85750769       9.83008091      13.25689715
I       19.98086998      19.83915727       9.77648968
C        9.95739301       9.60572950      16.29230380
H        9.29632864       8.98810749      15.67673785
N       -1.96256382       3.23775087       2.81041043
H       11.47243897       9.60290510      14.91063374
H       -1.30458537       3.79434197       3.35661997
N       -3.59100060       3.34718962       4.44744069
H       -3.03675906       3.97219641       5.03741419
H        8.59927012       9.77303719      17.81777039
Pb       6.76918866      13.07228892      -0.05968083
I       10.00509364      13.05052107       0.24071595
I        6.65178320      16.28722336       0.04358245
I        6.81156469      12.94385164       3.27510568
C        9.96676365      16.56572982       3.31427851
H       10.32487040      17.51840035       3.71474841
N       10.58386341      16.04865204       2.27332257
H       11.36465870      16.52382589       1.82472708
H       10.28876435      15.16261923       1.84691570
N        8.94075301      15.98901170       3.90515236
H        8.54402544      15.10521652       3.57350161
H        8.48004308      16.42091997       4.70201369
Pb       6.57671049      12.98214859       6.56672148
I        9.89594372      13.40470184       6.81681014
I        6.20750397      16.26417132       6.60069918
I        6.68582946      12.98189071       9.80065800
C        9.85573475      16.69770383       9.99232302
H        9.76240494      17.46835098      10.76321131
N       11.00248165      16.06110529       9.88222078
H       11.75751448      16.22499355      10.54725782
H       11.13544398      15.30687160       9.20772090
N        8.82224491      16.45382902       9.21509403
H        8.86570641      15.75693889       8.47067276
H        7.96722218      17.00036345       9.30326300
Pb       6.66097244      13.08898289      13.01322686
I        9.93043517      13.29538266      13.28918947
I        6.51694590      16.28325732      12.81495085
I        6.45786064      13.10332402      16.33443200
C        9.87193754      16.45414051      16.20458847
H        9.82695119      17.32196630      16.86824662
N       10.22948271      16.63252400      14.94960472
H       10.39944990      17.56213014      14.56540756
H       10.28570732      15.83658716      14.30810538
N        9.56954861      15.26910033      16.69711159
H        9.57648648      14.44287602      16.09995411
H        9.29101320      15.15102871      17.66765569
Pb       6.72516272      13.13909109      19.61152203
I       -3.15610627       6.25966234       6.62415935
I        7.06191073      16.32986229      19.61450695
I       -6.22561759       6.25421386       9.79604634
C       -2.73741986       9.71193428       9.74589439
H       -1.66853582       9.89386280       9.88616184
N       -3.48516524      10.71258929       9.32866621
H       -3.06310913      11.61072571       9.11116763
H       -4.46637794      10.58620802       9.08371985
N       -3.21125952       8.51726633      10.02524175
H       -4.19622930       8.27452422       9.91166779
H       -2.58822597       7.76979792      10.32224950
Pb       6.79089281      19.52954210      13.02982096
I       10.10303025      19.81724447      13.04060432
I       19.53696491      16.44887220       0.06975780
I        6.96263062      19.31820413      16.25046663
C       10.03239413      22.66789280      16.27442015
H        9.67428846      21.66795438      16.53566562
N       10.16524964      22.97544691      15.00051143
H        9.96217301      22.27613347      14.28631395
H       -2.86269236      10.75362592      21.18856096
N       10.31721715      23.50170926      17.25264850
H       10.73829614      24.41467916      17.07873860
H       10.17609953      23.23230568      18.22020166
Pb       6.80707107      19.63709949      19.45561413
I       10.02376424      20.16642555      19.38716413
I       19.67600401      16.51860843       6.36490283
I       -6.42383817      12.95078650       9.71576113
C       10.09746546       9.78148144      -3.20446766
H       -2.01857673      16.12150327       9.11468729
N       10.32941639      10.05594803      -1.93752473
H       11.27686124      10.18333180      -1.57877490
H        9.56353305      10.11489789      -1.26589279
N        8.89023815       9.52923531      -3.66893065
H        8.08942129       9.48061875      -3.04104785
H       21.84488807      15.98073916       8.36883640
Pb      13.29964198      13.14750190       0.04753535
I        3.58400612      19.35576424      13.11773157
I        0.13624999       3.27005107       6.27196950
I       13.53406041      13.17936007       3.24599190
C       16.27412244      16.47781655       3.30622872
H       15.32064696      16.10550879       3.69272235
N       17.22949917      15.60539389       3.05259303
H       17.10081198      14.61915470       3.24717499
H       18.05687881      15.86596079       2.51315209
N       16.41545096      17.77390773       3.11761665
H        4.13374042       5.01638872       9.44096840
H        2.43380837       5.22688052       9.78447811
Pb      13.22136089      13.28969162       6.46957899
I       16.47755967      13.39121669       6.44104006
I       13.31164446      16.46401241       6.43164482
I       13.06232682      13.17680899       9.72733963
C       16.35473987      16.27239352       9.39526148
H       16.44192801      15.63436876       8.51087377
N       15.27309824      17.00923297       9.52867053
H       14.54903899      16.99169329       8.81019327
H       15.11939530      17.58818129      10.35369516
N       17.34096153      16.26666368      10.26552509
H       17.33598232      16.88527162      11.07714221
H       18.11175737      15.60692426      10.17354482
Pb      13.21666915      13.23559197      13.01011079
I        3.36498181       6.73637431      -0.13616170
I       13.31626016      16.49941555      12.84012192
I        0.03991527       6.51479122       3.23111026
C        3.55538178       9.56004568       3.25084316
H        4.19880268       8.68296850       3.36910437
N        3.85996048      10.43248234       2.31101238
H        4.65836915      10.29011683       1.69768576
H        3.27873623      11.25265429       2.13868673
N        2.52363582       9.69689087       4.05346164
H        1.88447812      10.49285410       3.96972261
H        2.32383693       8.99810852       4.76532103
Pb      13.43591058      19.74775098      13.01761195
I       16.58734342      19.42081170      12.50022665
I       13.83900427      23.01954359      12.83667442
I       13.79210381      19.56174939      16.22886532
C        3.26067738      16.19368623       3.33651030
H        3.67748466      15.29343887       3.79638344
N       17.02848248      23.41721114      15.35395149
H       17.90170246      23.03189442      14.99578244
H        3.50287265      11.09376698      21.40443619
N        2.12112377      16.66826123       3.80218596
H       14.80442315      24.17991843      16.43714137
H        1.66964076      16.25823383       4.62045682
Cs       3.50842490      16.21102871       9.81557990
