233
Lattice="-12.957396986651146 6.351727325886291 13.017959588757243 13.11604327292129 6.668741413988977 13.017959588757243 13.195366416056363 13.17897578392661 -6.508979794378622" Properties=species:S:1:pos:R:3 pbc="T T T"
Pb      -6.36285987       6.29623130      12.90092243
I       -3.10259894       6.70338255      12.52242483
I       -6.07107492       9.59448108      13.21914122
I        6.98350775      19.27444334       9.73341460
C       -3.38667730       9.98893372      16.20608185
H       -4.28118740      10.54066205      15.90139015
N       -3.16160452       8.81356025      15.66103572
H       -3.77953725       8.45448752      14.93752812
H       10.86002343      21.43018060       9.38628361
N       -2.59646118      10.53859580      17.10226300
H       -1.78582220      10.04935350      17.49455890
H       -2.83048463      11.43503280      17.53053086
Pb       0.30872488      19.55080096       6.51759127
I        3.60386169      19.76332032       6.13991051
I       13.16502190       9.92104722      12.70809130
I       13.58728034      13.27827072      -3.35442796
C        3.45604929       3.54848436       3.09054626
H        3.44099623       4.37083950       2.36825185
N        2.55146051       3.53719377       4.04461562
H        1.84985276       4.27197976       4.10913614
H        2.54132453       2.80500495       4.75816832
N       -8.57596692       8.97531991      15.97099021
H        4.67113365      21.35471740      10.09435618
H       -7.88159578       9.03822229      15.22600384
Pb       0.14711040       6.58618055       6.57415803
I        3.42691082       6.16347117       6.79025661
I        0.30883773       9.81448274       6.50208041
I        0.04846416       6.58514468       9.75850026
C        3.39896959       9.81096602      10.18811049
H        2.93088657       9.72653948      11.17351463
N        4.03964256       8.76889619       9.70463047
H        4.12095306       7.91186649      10.24486469
H        4.54702507       8.83043156       8.81667102
N        3.28555076      10.95072041       9.53881062
H        3.67390926      11.07729736       8.60459827
H        2.79326100      11.74012352       9.95018113
Pb       0.09970599       6.63082071      13.01871571
I        3.40394805       6.62748294      12.92349999
I        0.35121220       9.83898138      13.09880819
I       12.91579234      19.74810928       9.78690724
C        3.37313740       9.76821318      16.56184787
H        2.98263265      10.13184886      17.51754576
N        4.17691847      10.55524234      15.87621661
H        4.43940766      11.47420954      16.22547697
H        4.68510292      10.22351267      15.04938709
N        3.00779400       8.57131875      16.15076103
H        3.27999266       8.20227059      15.23583466
H       15.60500551      21.16052396      10.21447342
Pb       0.19846767      13.03195104       6.55240848
I        3.50194770      13.46385771       6.70722147
I        0.44018427      16.31935608       6.83566295
I        0.05398064      13.08316595       9.79472345
Pb       0.36184763      13.10554839      13.08079697
I        3.57236700      13.20988189      12.51923126
I        0.67195353      16.39665138      12.77838219
I        0.68907053      13.15896005      16.25603451
C        3.06982356      16.30184596      16.31161308
H        1.99572588      16.42360819      16.47288093
N        3.54243706      16.48286671      15.09877870
H        2.89878773      16.63476778      14.32118833
H        4.53087038      16.36246528      14.86199963
N        3.82352790      16.01051060      17.35175030
H        4.80390347      15.75024375      17.24681046
H        3.39857844      15.85837392      18.26140643
Pb       0.24431267      13.04152767      19.39760955
I        3.46285101      12.77216926      19.61304922
I       13.55943400       9.93003951       6.48576591
I       -0.27156767      12.98466628      22.69225395
C        3.52033289      16.51076285      22.69143967
H       16.49712901      11.00130571       8.97440718
N        2.61822212      15.56858540      22.51157570
H        1.94897831      15.63200564      21.74353508
H        2.53304595      14.79058404      23.16529467
N       -8.70927318       9.81280453      10.64582624
H       -8.71879297       9.06826409      11.34491577
H       -8.03978656      10.56939533      10.76572345
Pb       6.80856633       6.50798760       0.07837208
I       -2.91185799      13.11662747      13.25297117
I        6.69281483       9.77542524       0.12170893
I        6.47698330       6.55433989       3.34427488
C        9.90474550      10.19656791       2.96199482
H        9.80735753      10.93361776       2.15840080
N        8.90112741       9.37968164       3.18941385
H        8.06319469       9.41394758       2.61185544
H        8.96909775       8.63744531       3.89063920
N       11.02915521      10.17300908       3.64857669
H       11.14439552       9.54688208       4.44572491
H       11.75061532      10.87662090       3.48987140
Pb       6.65583195       6.53055153       6.56076325
I        9.91099900       7.28160527       6.13102200
I        6.04099005       9.78964390       6.70353065
I        6.92085331       6.28417985       9.84780312
C        9.84554076       9.75806259       9.81648318
H       10.50748454       8.89038396       9.89380857
N       10.38438434      10.96023987       9.77732381
H       11.38599034      11.11472325       9.86449308
H        9.79364519      11.78651849       9.68249390
N        8.54510354       9.56077949       9.75216376
H        7.90266232      10.35529085       9.72372133
H        8.14075399       8.62090192       9.78555172
Pb       6.67094610       6.64659731      13.12465488
I        9.95045786       6.70905281      13.23882869
I        6.55615780       9.87201996      13.08298302
I       19.77973978      20.06776887       9.84487973
C        9.93231613       9.52503785      16.31850888
H        9.56992624       8.57180514      15.92188418
N       10.82889730      10.19403033      15.62324016
H       11.20261896       9.84107999      14.74388513
H       11.22511754      11.07050286      15.96191208
N       -3.67519680       3.28949949       4.44305644
H       -3.35732207       4.16300870       4.87557760
H       -4.35289827       2.74302295       4.96845765
Pb       6.66839949      13.04689345       0.01763097
I       10.03502343      12.81046785      -0.35781145
I        6.87101086      16.23652920       0.59592170
I        6.74192897      12.66351825       3.29056651
C       10.36666135      16.23729598       3.35690439
H       11.34847767      16.05373019       3.80064340
N        9.53343287      15.22445241       3.24719142
H        9.74622883      14.32767730       3.67454929
H        8.64644011      15.31695073       2.75112389
N       10.08528891      17.45662861       2.94642698
H        9.14876277      17.71424740       2.63325335
H       -2.42865212       5.02757900       9.55657851
Pb       6.74220385      12.99516309       6.52317642
I        9.99614512      13.04555035       6.41015587
I        6.78684511      16.27500960       6.44109052
I        7.10822298      13.07587604       9.75674928
C       10.11733846      15.97706508       9.73732887
H       10.42339321      14.97804699       9.41711611
N        9.72163951      16.83746453       8.81563741
H        9.64540238      16.54442040       7.84744735
H        9.20046129      17.67772758       9.07976439
N       10.19226489      16.27623331      11.01638519
H       10.03275470      17.22234816      11.36786766
H       10.40428368      15.55121732      11.70376420
Pb       6.80239035      13.15768963      13.00399703
I       10.08013584      13.24251108      13.14097334
I        6.52370257      16.40561321      12.96509597
I        6.55789045      13.42979566      16.25522932
C       10.03561705      16.15335847      16.47395954
H       10.01856787      15.32453739      17.18820308
N        9.06198652      17.03695576      16.52258756
H        8.32165828      16.95645406      17.21753513
H        9.02823897      17.83174378      15.88346524
N       11.03160533      16.21626017      15.61524867
H       11.06898601      16.94900160      14.90486266
H       11.74427725      15.49056694      15.59376542
Pb       6.69546777      13.03708109      19.50634846
I       -3.12414273       6.50847631       6.26388088
I        6.78010810      16.29869737      19.55186326
I       -6.37188113       6.34680648       9.70527101
C       -3.17631885      10.10293720       9.65165575
H       -3.23939640      10.96027935       8.97372660
N       -3.80008521       8.99331567       9.31431848
H       -4.37547891       8.95311295       8.47478890
H       -3.82295315       8.18742667       9.94008391
N       -2.47148433      10.22562965      10.75649588
H       -2.37796508       9.45292520      11.41574877
H       -2.01662930      11.10182267      10.99932090
Pb       6.84541482      19.67267665      13.02069720
I       10.09547037      19.23367670      13.37717774
I       20.34199726      16.51422453      -0.10391065
I        6.67044054      19.88809321      16.28784112
C       10.00284479      22.61656386      16.46692543
H        9.56084569      21.64795335      16.21713758
N        9.90996978      23.04488272      17.71060338
H        9.45354099      22.47458926      18.41816093
H       23.11140354      17.64939158       4.95984353
N       10.60051846      23.30071226      15.51123523
H       -2.04564638      10.96208821      22.22705465
H       10.66042084      22.92992802      14.56911432
Pb       6.73267878      19.63681297      19.62630304
I       10.05850178      19.72833259      19.58639819
I       19.61634958      16.50752277       6.85497966
I       -6.28828822      12.78289710       9.84654514
C        9.93109227       9.69839267      -3.48742357
H       -3.00523748      15.26571872       8.76725176
N        8.79695795      10.33419499      -3.27636673
H       21.09948487      16.81925261       9.15535815
H        8.74031505      11.11449674      -2.62123261
N       11.03409741       9.95415899      -2.81915887
H       11.05550934      10.65567086      -2.07700488
H       -1.07535900      15.76971542      10.03169029
Pb      13.26809426      13.29959051      -0.11307771
I        3.63117111      19.97606015      12.61933444
I       -0.12162346       3.31485820       6.63764379
I       13.29007187      13.15913610       3.17546097
C       16.52199661      16.06119225       3.31668443
H       16.79304194      15.23524220       3.98270931
N       15.28187408      16.50698319       3.35236559
H       14.59395700      16.09995301       3.98088167
H       14.95479077      17.24473917       2.73034011
N       17.44524256      16.56952326       2.53257339
H        4.04220826       4.16612471       8.39932152
H       18.37902642      16.16796059       2.50112692
Pb      13.24866113      13.20180401       6.47670633
I       16.49152774      13.37508199       6.66518116
I       13.04841197      16.47039601       6.42705270
I       13.32089715      13.21393699       9.72177744
C       16.51634051      16.45800982       9.70567997
H       17.25314459      16.43978722       8.89663317
N       16.94108432      16.37710417      10.94991301
H       17.92728831      16.29589682      11.19269805
H       16.27115800      16.36756178      11.72240803
N       15.23923914      16.57421365       9.39928358
H       14.53482662      16.56667438      10.13821666
H       14.90562528      16.58253718       8.43583396
Pb      13.41384067      13.11593169      12.91889704
I        3.49861231       6.28915506       0.01549519
I       13.75326819      16.43204770      12.90639191
I        0.24423859       6.45140898       3.24966649
C        2.80698388       9.81586519       3.32045302
H        1.71446642       9.83336161       3.33787876
N        3.41094759       8.64798371       3.37241230
H        2.86167190       7.79288739       3.39408449
H        4.42632343       8.54751846       3.37442842
N        3.44137188      10.96618604       3.25769376
H        4.46046563      11.04391123       3.26732059
H        2.90600404      11.83068035       3.20283155
Pb      13.37957769      19.67216358      13.07143701
I       16.58312597      19.97355339      12.94371654
I       13.28471966      22.93033748      12.87044443
I       13.47209473      19.79825008      16.30393706
C        3.34746563      16.37770069       2.96854919
H       16.69242183      23.54624153      15.04073490
N        2.20693462      16.66317070       3.56149037
H       14.68914222      24.03342950      16.19803950
H        1.93456708      16.24566374       4.45477126
N        4.22382648      15.52421451       3.45526603
H        4.05619821      15.02321536       4.33053132
H        5.09216260      15.33286819       2.96258593
Cs       3.67735969      16.46310698       9.69810847
