233
Lattice="-12.957396986651146 6.351727325886291 13.017959588757243 13.11604327292129 6.668741413988977 13.017959588757243 13.195366416056363 13.17897578392661 -6.508979794378622" Properties=species:S:1:pos:R:3 pbc="T T T"
Pb      -6.42735996       6.39142870      13.01364993
I       -3.14549390       6.47743710      13.17725490
I       -5.86192513       9.70764241      13.33638088
I        6.55685956      19.28489831       9.77299472
C       -2.98706079       9.66357873      16.50320113
H       -2.31803938       9.68657326      17.36872713
N       -4.06062761       8.90498882      16.55937832
H       -4.25795623       8.34127770      17.38241920
H       -4.70627953       8.84393461      15.76996911
N       -2.67696443      10.40162736      15.45839634
H       -3.26650308      10.41249543      14.62627674
H       -1.83327724      10.96947460      15.44347714
Pb       0.27233507      19.44192046       6.44313011
I        3.54335954      19.15976853       6.41479536
I       13.26040189       9.81293541      12.45199718
I       13.55235775      13.23097865      -3.33085277
C        2.99653242       3.24321904       3.30956478
H        1.95073489       3.44695896       3.06747169
N        3.32036437       3.02884128       4.56601989
H        2.60083788       3.01300948       5.28626859
H       17.48620259      16.11470328      -1.63382202
N        3.87104131       3.21832275       2.32267369
H       -8.12285315       9.28012961      15.48527015
H        3.60621280       3.50406918       1.38564905
Pb       0.14504279       6.40774306       6.43567049
I        3.32881139       6.42071355       6.74664831
I        0.42665987       9.71930942       6.28161367
I        0.00843509       6.63094519       9.70995071
C        3.43744790       9.75635816       9.48225353
H        3.35254010       9.43327801       8.44142852
N        2.72239156       9.12664684      10.39037628
H        2.08925481       8.36854127      10.13704946
H        2.76152238       9.37617841      11.37610422
N        4.25424983      10.74910647       9.76978019
H        4.33357759      11.12098244      10.71700212
H        4.79903747      11.20856050       9.04550732
Pb       0.10594572       6.51405344      13.05583787
I        3.37333283       6.44479210      12.85273910
I        0.18606831       9.74586173      13.13063657
I       13.24652705      19.53018012       9.77435550
C        3.56410681       9.72872063      16.06345873
H        4.55263426       9.92776089      15.64018522
N        3.28918589       8.50841503      16.47078673
H       17.20301024      20.96400808       9.92342407
H       15.55473329      21.41883481      10.28361479
N        2.70777522      10.72694758      16.14544893
H        1.82019066      10.63064875      16.63860230
H        2.91221654      11.62353975      15.71686529
Pb       0.32288868      12.99970098       6.53250652
I        3.52547007      13.48208466       6.64928969
I        0.02029125      16.21080208       6.69156390
I        0.46096697      12.93980297       9.75322974
Pb       0.30752079      13.01951347      12.98475942
I        3.52621758      12.94568063      13.00028535
I        0.57699878      16.24910571      12.74349383
I       -0.00334848      13.20018485      16.25272277
C        3.11709968      16.29030132      16.37926161
H        2.15716031      16.67562136      16.73506101
N        3.33368597      14.99219870      16.43752658
H        2.60964933      14.36622485      16.78317874
H        4.25451085      14.58484295      16.24752572
N        4.00294761      17.14905561      15.91927430
H        4.84627492      16.84016707      15.42732989
H        3.78260428      18.13777585      15.86385254
Pb       0.19175187      12.91462563      19.53464812
I        3.40845834      12.92004221      19.57106276
I       13.20691280       9.86635624       6.52453722
I        0.15519616      12.55612626      22.72728544
C        3.47706536      16.44996727      22.79200905
H       15.58722231      10.40891014      10.39343271
N        4.67054327      16.39128440      23.34991432
H       -8.28888087      10.05541886      11.27827012
H       -7.64675296       9.34604086       9.82241718
N        3.25615443      16.13259196      21.53535296
H        4.03488917      15.93930078      20.89912631
H        2.31929919      16.16698432      21.12288727
Pb       6.75264487       6.58988747      -0.00672744
I       -2.99747558      13.22331466      13.05594444
I        6.81293791       9.82560826      -0.23192792
I        6.42518728       6.95453798       3.24584854
C        9.94154160       9.88872316       3.18459150
H        9.91024564       9.06751933       2.46267101
N       10.10780020      11.11974147       2.73781287
H       10.14874960      11.34577691       1.74516176
H       10.14690043      11.89812123       3.39558702
N        9.81611665       9.61686448       4.46749622
H        9.84792648      10.36961566       5.15908966
H        9.73406972       8.66172245       4.81870761
Pb       6.55184154       6.65690786       6.51285963
I        9.81159997       6.54954975       6.51971230
I        6.50562358       9.92793784       6.74814714
I        6.44708807       6.67038158       9.74371070
C        9.85396416       9.85682119      10.03584294
H       10.27470488      10.14060780      11.00418262
N        8.62909999      10.24039986       9.74191039
H        8.05389186      10.71953323      10.43010652
H        8.18659639      10.03257330       8.84039475
N       10.60944994       9.16270904       9.20748048
H       10.23460563       8.75658628       8.34889812
H       11.54490597       8.87013618       9.47430885
Pb       6.63163540       6.70185112      12.95076724
I        9.90751924       6.92408669      13.08216433
I        6.55331450       9.95281927      12.92169665
I       19.70783190      19.99006818       9.70785496
C        9.83101783       9.52473580      16.18914942
H        9.33897459       8.59020049      15.90400625
N       -3.55174934       3.36784277       4.35512276
H       -4.20942784       2.91446264       4.98584219
H       -3.15306707       4.25197819       4.67227745
N       10.65566883      10.08304014      15.32887533
H       11.21416304      10.90679821      15.56987465
H       10.83622156       9.64497140      14.42926611
Pb       6.68971092      13.07905569      -0.07643573
I        9.94778063      13.14096331      -0.36602477
I        6.50384575      16.31072629      -0.02669835
I        6.68218875      13.08212241       3.20654965
C        9.87512486      16.24118933       3.49924886
H        9.56058618      15.82867104       4.46034576
N       10.59574659      17.34240070       3.49460725
H       10.86884476      17.78475307       4.36868713
H       -2.39085013       4.66665600       9.14128945
N        9.52138384      15.60585776       2.40153012
H        9.90381520      15.86204843       1.49534288
H        8.88977332      14.80843911       2.44189572
Pb       6.71703411      13.20035740       6.45141998
I       10.00482481      12.98791601       6.18896303
I        6.97358341      16.41641893       6.31189869
I        6.67840768      13.64036305       9.76939063
C       10.08914374      15.94374531       9.86429680
H       10.32054179      14.87639419       9.82229464
N        9.88658278      16.58414794       8.73206557
H        9.98263343      16.11073361       7.84028074
H        9.67550405      17.58030141       8.69770143
N       10.02341412      16.52241553      11.04505146
H        9.86423548      17.52353273      11.15801338
H       10.19212165      15.97726040      11.88668166
Pb       6.78515055      13.18663876      13.02799475
I       10.06025179      13.26388570      13.06533851
I        6.69466712      16.40234027      13.41372090
I        6.61038339      13.15499268      16.27731319
C       10.06919943      16.32371712      16.05521867
H        9.53625321      15.88082440      15.20837639
N        9.56347214      17.39892145      16.62155415
H        8.70277163      17.82950161      16.28332649
H       10.00838601      17.86193401      17.41991832
N       11.18370933      15.75280822      16.46430558
H       11.73233431      16.12444724      17.24557334
H       11.55597881      14.92255403      16.00637496
Pb       6.60483830      13.12566039      19.54575013
I       -3.14974882       6.36954252       6.65466734
I        6.47267144      16.36097653      19.65988452
I       -6.31295378       6.58763314       9.78736343
C       -3.14949240       9.94918688       9.60603635
H       -3.33846882      10.96046377       9.97613178
N       -2.93593344       9.77664774       8.31783486
H       -2.93839112      10.58259093       7.68748043
H       -2.89333442       8.84233779       7.90027287
N       -3.13563553       8.95643911      10.47418464
H       -2.86161939       8.01694911      10.19735225
H       -3.37120945       9.09676290      11.45090156
Pb       6.67218137      19.58041607      13.03172216
I       10.00551319      19.75719435      13.01187927
I       19.75097597      16.53786615      -0.06550135
I        6.72975938      19.71163754      16.27502972
C       10.06988812      22.91263935      16.55515910
H       10.38588748      23.29855038      17.52840660
N       10.84558517      22.04151908      15.94124455
H       11.69911786      21.69437365      16.37347018
H       10.55071993      21.57455497      15.07999306
N        8.93595399      23.34230732      16.04156637
H        8.61677952      23.05335542      15.11494702
H       21.31494466      17.67894553       3.50350079
Pb       6.75831112      19.69529124      19.58776676
I       10.14196325      19.60726101      19.49687241
I       19.98001187      16.59750658       6.47572395
I       -6.16477232      12.91057449       9.77934669
C        9.96294624       9.84314858      -3.61118083
H       -2.54908126      16.45011830       8.43976520
N       -2.27309720      15.49450595      10.25770960
H       -1.34542322      15.15530744      10.01185952
H       -2.67231097      15.12007314      11.12353295
N        8.74548608      10.26484736      -3.34576681
H        8.29489695      10.09229838      -2.44058644
H       21.31082039      17.42194470       8.97037198
Pb      13.25016330      13.10878922      -0.12421767
I        3.51213028      19.46576479      12.98060642
I       -0.01615053       3.21236542       6.58232279
I       13.54000946      13.09889633       3.17965527
C       16.35559955      16.92407086       3.20327969
H       16.48196279      17.98360859       2.96730612
N       17.42262619      16.15224137       3.17571454
H       18.32123927      16.51696575       2.88132932
H       17.41188161      15.20539929       3.55234697
N       15.15092196      16.48304722       3.49200626
H       14.94099730      15.48588670       3.59014531
H       14.36427612      17.12644992       3.53042164
Pb      13.28310506      13.21611117       6.43856318
I       16.53588386      13.61930240       6.42974254
I       12.91241372      16.40545223       6.43990060
I       13.12436016      13.23522534       9.67987087
C       16.70624900      16.31954306       9.77516926
H       17.59167779      15.86172153       9.32492979
N       16.24420951      15.81517095      10.90131254
H       16.65331406      14.97971164      11.31930769
H       15.39278481      16.16903600      11.35053122
N       16.16019693      17.35801455       9.17716066
H       15.31773913      17.81453629       9.54115824
H       16.53372115      17.73988809       8.30811215
Pb      13.29666482      13.03414972      12.84745708
I        3.48280613       6.06924683      -0.14020140
I       13.35848757      16.34552300      13.11277240
I        0.13994849       6.02346782       3.16485533
C        3.17294678       9.83534936       3.12048150
H        2.31962800      10.51244993       3.22941845
N        3.86262485       9.88017290       1.99980297
H        3.65295647      10.57850488       1.28635897
H        4.70641733       9.32135875       1.87315916
N        3.45100948       9.01028817       4.10429040
H        4.23331543       8.35061681       4.03537672
H        2.87926090       8.99101951       4.94633363
Pb      13.27789141      19.57850214      13.01102191
I       16.53001457      19.63989699      13.00319508
I       13.40590562      22.86445939      12.55593968
I       13.51333233      19.59562770      16.27867939
C        3.43758232      16.49419053       3.29783256
H        2.92998464      17.05762345       4.08663202
N       15.82407999      22.43982798      15.49080092
H       14.81366443      22.42874041      15.56077279
H       16.24372617      21.82162045      14.79337745
N        4.75024201      16.56781485       3.22338080
H        5.26345417      16.18622039       2.42429037
H        5.28393446      17.12929641       3.88221926
Cs       3.43524221      16.38832840       9.67608177
