233
Lattice="-12.957396986651146 6.351727325886291 13.017959588757243 13.11604327292129 6.668741413988977 13.017959588757243 13.195366416056363 13.17897578392661 -6.508979794378622" Properties=species:S:1:pos:R:3 pbc="T T T"
Pb      -6.50823807       6.46092979      12.95432172
I       -3.25943265       6.52794098      12.60681442
I       -6.53540392       9.67124745      13.18148779
I        6.86068628      19.46738752       9.70457149
C       -3.22177938       9.67029560      16.42162515
H       -3.90770796       9.68295799      17.27366261
N       -3.49276434       8.86804322      15.41299206
H       -4.32043151       8.27655516      15.42225621
H       -2.89126456       8.81371239      14.59186896
N       -2.16851204      10.45872709      16.45119966
H       -1.49340221      10.48153785      15.68745193
H       -1.99113741      11.06433226      17.24835199
Pb       0.19727104      19.42612260       6.41945251
I        3.43621523      19.68796561       6.57744595
I       13.04139310       9.84252785      12.95546880
I       13.35396879      12.56701656      -3.36941181
C        3.54847547       3.17374745       3.25645636
H        4.40881484       3.09481982       2.58544475
N        3.74023377       3.63562921       4.47578951
H        4.66929577       3.88060130       4.81115874
H        2.95850342       3.70052822       5.13028007
N        2.36567730       2.81078813       2.80535458
H        1.53713421       2.90282756       3.39596210
H        2.24546406       2.43510618       1.86834467
Pb       0.18976791       6.45122284       6.47325016
I        3.40087151       6.80385668       6.94601221
I       -0.20104068       9.69918536       6.60166740
I       -0.08727212       5.95267330       9.68879518
C        3.20185364       9.93143086      10.18166308
H        3.00656985      10.58840541      11.03416329
N        2.37585357       8.93256463       9.95215235
H        1.58184112       8.76646544      10.56392044
H        2.53997922       8.26986653       9.18874045
N        4.25540373      10.18361723       9.43386710
H        4.48287880       9.62021216       8.61446568
H        4.85334558      10.98896328       9.61919865
Pb       0.00498785       6.32408468      13.00781120
I        3.22644191       6.22975616      12.81190903
I       -0.08264058       9.67114670      12.99416062
I       13.31210519      19.67664567       9.72125292
C        3.03496226       9.92651184      16.26904956
H        2.08184714      10.28281674      16.67162388
N        4.08439282       9.92359630      17.06452500
H        4.04113870      10.33980507      17.99011082
H        4.93404418       9.41318492      16.82246327
N        3.07401508       9.51617950      15.01774638
H        3.96322861       9.34571424      14.54103341
H        2.22795703       9.50984935      14.44620344
Pb       0.14562673      12.96636684       6.47563722
I        3.38962890      12.78961570       6.18626390
I        0.54669838      16.19347393       6.21942208
I        0.51002716      13.21225240       9.66515856
Pb       0.13133464      12.97706367      12.89679397
I        3.41713817      13.23115241      12.87668001
I        0.20489475      16.21415331      13.00951169
I        0.33888636      13.07160722      16.14590703
C        3.49550152      15.94744780      16.03742400
H        3.51896734      15.11792552      15.32321646
N        4.57058960      16.18757724      16.75514035
H        5.38387248      15.57748829      16.68299600
H        4.56861638      16.90003634      17.48853284
N        2.39145285      16.65925169      16.12471739
H        2.32205202      17.45548780      16.75870665
H        1.59902894      16.46403315      15.51709274
Pb       0.27978350      12.95870083      19.40473627
I        3.50741491      13.08762957      19.30137182
I       12.85771093       9.89323374       6.35087120
I        0.39238826      13.03500548      22.70806488
C        3.44184775      16.62227420      22.73290996
H        3.97558622      17.49701393      22.35119565
N        2.88952084      15.79578649      21.86924836
H        2.93884581      15.97524197      20.87224913
H        2.33280828      14.99203934      22.17201120
N       16.34783807      10.09260350      11.01928448
H        2.95126799      15.62460545      24.45578614
H        3.64896883       4.09885579      -1.36064088
Pb       6.62843316       6.54143850       0.06546453
I       -3.09536072      12.84722188      12.89811201
I        6.73918206       9.85713154       0.13201808
I        6.59259469       6.41985353       3.32993352
C       10.26789110       9.64234405       3.21984932
H       11.23172168       9.16995660       3.43271909
N        9.39428879       9.74897194       4.19766631
H        9.57638425       9.33536371       5.10763108
H        8.55090226      10.31327547       4.09886601
N       10.04180798      10.08345201       1.99967112
H        9.10227429      10.33168599       1.68291602
H       10.76953737      10.01760306       1.28750011
Pb       6.71340328       6.59730151       6.58625882
I        9.93964065       6.59733351       6.39669172
I        6.81717076       9.81183610       6.82234329
I        6.71507369       6.28603957       9.83209978
C        9.87077933       9.77920893       9.42438127
H        9.60887148       9.58002007       8.38250186
N       11.12567266      10.04212895       9.71754145
H       11.82252416      10.06973503       8.97406876
H       11.46094456      10.12122226      10.68178019
N        8.90453202       9.75146530      10.32074901
H        9.05897180      10.03700070      11.28464637
H        7.96146815       9.48868379      10.05942646
Pb       6.50458176       6.50376711      13.08936241
I        9.80798516       6.64542296      13.18980698
I        6.33370283       9.74691873      13.02381802
I       19.66916620      20.04747619       9.80111194
C        9.92512718       9.78924756      15.67971475
H        9.63971070       9.68035853      14.63058207
N        9.76484608      10.96191099      16.25528065
H        9.34723240      11.73205298      15.73951964
H       -3.14327672       4.46236968       4.22437832
N       -2.69284619       2.07181936       3.27967088
H       10.77207975      15.27303293      -2.24701701
H       10.59431245      14.36533461      -3.72072229
Pb       6.78924327      13.14651518       0.00835878
I       10.02763938      13.16897359      -0.22345793
I        6.83482569      16.36143346       0.07935084
I        6.97302932      12.81933240       3.31259827
C        9.88305378      16.33491392       3.30400511
H       10.68934784      16.97939286       2.94101788
N        8.72004902      16.88665699       3.59398097
H        8.56057242      17.88513537       3.47943135
H        7.99554792      16.37035364       4.09583140
N       10.11012067      15.04275423       3.42447688
H        9.36674004      14.39505985       3.69142670
H       11.03358825      14.64463750       3.23948583
Pb       6.66171938      13.10719908       6.54878352
I        9.92416887      13.17581574       6.75156197
I        6.33781595      16.31908844       6.44355700
I        6.35974069      13.34248730       9.75189928
C        9.68560320      16.27988055       9.99998804
H        8.94186731      16.51441333      10.76872761
N       10.29690238      15.11569675      10.06653686
H       10.10379561      14.46139835      10.82684170
H       10.93855211      14.80183401       9.33846004
N        9.92155324      17.17362010       9.06389121
H       10.65451480      17.03163431       8.36318254
H        9.40062808      18.04638264       9.04110580
Pb       6.61408687      13.04240712      13.00922276
I        9.92378960      12.83365663      12.96876653
I        6.77136095      16.28448389      12.99507642
I        6.65133798      13.13218874      16.22855467
C       10.14924115      16.23884743      15.89124534
H       10.62875452      16.54335986      14.95638581
N       10.28125711      14.98558898      16.28337705
H       10.85127269      14.33305819      15.75163783
H        9.96695806      14.67195989      17.20334925
N        9.46915705      17.13562842      16.57224734
H        8.90201575      16.87692693      17.38906881
H        9.36415637      18.08384388      16.22393571
Pb       6.75692769      13.13315140      19.48275305
I       -3.09024810       6.16193925       6.40382281
I        7.25118484      16.35339966      19.40575316
I       -6.56868570       6.80970533       9.71305464
C       -3.09384588       9.79541128      10.11693648
H       -3.53297332       9.48250889      11.06859678
N       -3.41290296      10.98179776       9.64117081
H       -4.05609778      11.59161610      10.14083722
H       -3.10491922      11.30565393       8.72278556
N       -2.27196501       8.97158201       9.50573534
H       -1.76468658       9.24380486       8.65290634
H       -2.03688494       8.06636283       9.90939758
Pb       6.86229756      19.47210273      13.01209124
I       10.06055709      19.36852440      12.87792797
I       20.09329888      16.47837228       0.02899939
I        6.89768088      19.79472462      16.27021247
C       10.69235779      23.04085310      16.14530757
H       11.74865801      22.80075714      16.29670047
N        9.89175511      22.07969120      15.73533513
H       10.26207678      21.15363754      15.53610813
H        8.92074726      22.25314027      15.47947694
N       23.24283369      17.91346310       3.38475072
H        9.06544917       5.02102881       9.81410991
H       23.91332565      18.62767227       3.65809762
Pb       6.69497381      19.58500658      19.53366900
I        9.96563290      20.04469266      19.83465247
I       19.27520942      16.42575935       6.94682492
I       -6.68444832      12.80781901       9.80872924
C        9.80184853      10.09822770      -3.09933401
H       10.00188684      10.89050955      -2.37128730
N        8.71129917       9.37625198      -2.94586999
H        8.09746930       9.51655402      -2.14056971
H        8.45384144       8.64612599      -3.60906102
N       -2.30406959      16.27146046       8.93281196
H       -2.43963264      15.52310170       8.24396219
H       -1.47512403      16.85683903       8.84841565
Pb      13.31312700      13.13418644      -0.17201985
I        3.56586135      19.28637789      12.82025013
I        0.27527722       3.17471558       5.91058148
I       13.39468417      13.48664483       3.12061742
C       16.66973838      16.63602193       3.19886917
H       17.28486436      17.50477355       3.45140100
N       17.00206778      15.92598955       2.13847238
H       17.84984359      16.13883312       1.61267265
H       16.50299409      15.07568162       1.87730907
N       15.63575850      16.35747758       3.96253838
H       14.99169907      15.59154617       3.73965303
H       15.40077190      16.96100029       4.74664452
Pb      13.12837464      13.07951091       6.48396886
I       16.45716184      12.55365385       6.20616666
I       12.86757557      16.34427763       6.78440689
I       13.49270691      13.12723108       9.66680107
C       16.17456017      16.50268657      10.01092887
H       15.36342107      16.41398583      10.74124390
N       16.20573471      15.65572707       9.00447923
H       15.50420680      14.91943617       8.92824819
H       16.95299318      15.70127826       8.30640977
N       17.06897574      17.45257264      10.18739085
H       17.83298385      17.58948462       9.52532719
H       17.00258887      18.10291109      10.96967161
Pb      13.32327168      13.13993674      13.01996317
I        3.37318986       6.59679616       0.10554762
I       13.37381853      16.38624212      13.14652604
I        0.43979730       6.52699393       3.21192634
C        3.42379771       9.60395682       3.08258577
H        3.04731151       8.73348573       2.53557644
N        4.64349417       9.55090049       3.57861196
H        5.21833523       8.71211155       3.46932851
H        5.09171798      10.37777687       3.97127533
N        2.63528387      10.64953764       3.21740089
H        2.86987728      11.40896497       3.86443992
H        1.72646579      10.68221847       2.76333156
Pb      13.26688842      19.67556677      12.92530581
I       16.60648347      19.82246067      13.18873530
I       13.38172851      22.92201253      12.92527216
I       12.77870721      19.63705259      16.23461855
C        3.41431493      16.43983908       3.45523245
H        3.06644070      16.96681830       4.34827843
N        4.46025411      16.91943984       2.81527515
H        4.92057608      17.77765367       3.11689134
H        4.84428108      16.47636632       1.97723359
N        2.77222739      15.35371126       3.08341582
H       16.14747933      21.49481607      15.26048949
H       15.08034526      21.69341040      16.62432905
Cs       3.50205778      16.25437658       9.72216812
