233
Lattice="-12.957396986651146 6.351727325886291 13.017959588757243 13.11604327292129 6.668741413988977 13.017959588757243 13.195366416056363 13.17897578392661 -6.508979794378622" Properties=species:S:1:pos:R:3 pbc="T T T"
Pb      -6.42099141       6.25699902      13.17336367
I       -3.21268056       6.37880896      13.12437358
I       -6.31873504       9.53201131      12.93992773
I        6.67621458      19.31849783       9.85782399
C       -3.04612665       9.66196695      15.91983830
H       -2.63255478       9.31600638      14.96846092
N       -4.07343417       9.01300250      16.43012959
H       -4.48690782       8.21479701      15.95446242
H       -4.51591543       9.30248554      17.30443913
N       -2.48140719      10.69543132      16.51003724
H       -2.85161679      11.10226335      17.37456719
H       -1.70555715      11.19170064      16.07977139
Pb       0.16661995      19.62474948       6.45161722
I        3.49059126      19.83897894       6.82705989
I       13.27588348       9.97974303      12.91108855
I       13.12599586      13.09791782      -3.34293241
C        3.30150428       3.46463095       3.30461444
H        3.34120701       4.29294385       4.01827410
N        3.76869937       3.65864822       2.09005937
H        4.15837626       4.55364295       1.80846542
H        3.77256814       2.90528629       1.40044843
N        2.79297241       2.31682003       3.70076762
H       15.87817642      14.71304741      -3.45309840
H       15.62014311      15.37968271      -1.86809247
Pb       0.09825013       6.49787754       6.34574610
I        3.39640596       6.49518082       6.13623459
I        0.10426659       9.78429751       6.14281446
I        0.05324173       6.43731434       9.69230758
C        3.06229099       9.96891975       9.70857060
H        2.32926298      10.78022248       9.67457918
N        3.94674585       9.96586777      10.68088980
H        3.96904391      10.71750253      11.36905658
H        4.65062114       9.23085024      10.76304183
N        3.00645100       9.04092887       8.77451028
H        3.68584155       8.28049994       8.74434323
H        2.31663268       9.09155914       8.02874222
Pb       0.07864741       6.52734856      12.94346809
I        3.29931436       6.61214905      12.97448129
I        0.01778740       9.78537576      12.94817624
I       13.18524362      19.81851330       9.74832936
C        3.46439046       9.75809216      16.17077701
H        4.15552054       9.79999761      15.32423953
N        3.96110383       9.69309804      17.39090764
H        4.96166403       9.68736094      17.57859561
H        3.33875885       9.62843153      18.19627109
N        2.16768503       9.77898449      15.93903509
H        1.50499555       9.73679335      16.71821871
H        1.78003418       9.79293500      14.99440204
Pb       0.19978772      13.12078006       6.49182013
I        3.41683119      13.10118674       6.81039750
I        0.47929716      16.32575515       6.69736844
I        0.18489463      12.93724570       9.73992171
Pb       0.24373748      13.06123213      12.98575455
I        3.45490396      13.06179966      12.85446599
I        0.41491672      16.26083856      12.60917549
I        0.35929763      13.38211043      16.24250708
C        3.85677273      16.19085356      16.23043567
H        4.89798524      16.52681621      16.22197052
N        3.58544674      14.97195489      16.64121682
H        4.33633114      14.33571678      16.90709740
H        2.63470774      14.58222396      16.59538757
N        2.92905829      17.04656210      15.84944649
H        1.94291844      16.80044276      15.85361054
H        3.17566456      17.95023731      15.45408012
Pb       0.36370448      13.02129407      19.56486976
I        3.50264759      12.96429095      19.80085544
I       13.22371780       9.93712533       6.79685670
I        0.06201318      12.75773273      22.72902733
C        3.48571637      16.21426365      22.43950853
H        3.74103799      16.37807255      21.38868445
N       -8.84461275       8.76746970      10.13793378
H       -8.04404519       8.30236152       9.72031301
H       -9.03261359       8.56951457      11.11990276
N       15.37849628      10.45826043       9.91275108
H       15.04280268      10.28888472      10.86632479
H       14.79590791      11.05195643       9.32772973
Pb       6.69816606       6.46778473       0.00372967
I       -3.02824726      13.10885182      13.35003664
I        6.75742552       9.68614865       0.05507859
I        6.56574752       6.22838320       3.23941718
C        9.76607929      10.12236990       3.30706804
H        9.98341982      10.93424305       4.00746825
N       10.49761013      10.02150360       2.21678438
H       11.22747844      10.69897339       2.01278885
H       10.33813371       9.27140133       1.54040531
N        8.79414863       9.28495846       3.60389435
H        8.51477980       8.53838452       2.96768393
H        8.22027854       9.41564080       4.43887346
Pb       6.63669551       6.46157938       6.48312474
I        9.87302565       6.53129871       6.38282533
I        6.40666497       9.74185183       6.40673389
I        6.23328464       6.82594450       9.72283783
C        9.61396405       9.96262639       9.81943951
H        8.65797750       9.59545079      10.20323192
N       10.20247294       9.29637228       8.84713505
H        9.79702087       8.45002166       8.45376643
H       11.09018541       9.60333104       8.43554033
N       10.12412048      11.05722669      10.34740310
H       11.00635790      11.45894345      10.02108332
H        9.67056851      11.54072200      11.12030994
Pb       6.50537463       6.44627959      12.97322754
I        9.84461362       6.69461366      12.75725643
I        6.61192594       9.74488761      13.16843366
I       19.69113726      19.44873125       9.75536502
C        9.96868087       9.57585081      16.56887614
H       -2.76056639       2.13803929       4.22686622
N        8.73260839       9.44972955      16.13356690
H        8.15856025       8.65128916      16.39692030
H        8.28926275      10.15651203      15.54717556
N       10.75874686      10.57181997      16.23146571
H       10.47519801      11.28677010      15.55587496
H       -1.42482930       3.98332306       3.60893196
Pb       6.77305242      12.89126119       0.11532622
I        9.99233829      12.94790983      -0.29507661
I        7.08003962      16.16676954      -0.01603584
I        6.78899199      13.01918496       3.32737073
C        9.96339218      16.61003902       3.22815346
H        9.54087124      17.50745724       2.76684334
N       11.16208105      16.22253898       2.84308249
H       11.67920645      16.74178740       2.13730441
H       11.59107238      15.35916380       3.18564332
N        9.25077789      15.97536312       4.13396042
H        9.60204849      15.14938888       4.62626013
H        8.32519874      16.30347981       4.39659939
Pb       6.61669100      13.00311934       6.58089645
I        9.93934803      13.12226923       6.51157383
I        6.43864845      16.22362119       6.88436193
I        6.62855523      12.89380249       9.89093857
C        9.90269495      16.41405422       9.98135383
H        9.38679851      17.01132489      10.73869058
N       10.87770315      16.97043899       9.29351313
H       11.16239443      17.93545661       9.45129802
H       11.38474302      16.46746479       8.56249015
N        9.52400908      15.16326120       9.80493668
H        9.95256458      14.57436466       9.08963650
H        8.71894249      14.77533514      10.29222875
Pb       6.69541724      13.00379257      13.13816387
I        9.94818217      13.10767486      13.46540434
I        6.75504496      16.22963407      12.91145819
I        6.72155095      12.93413906      16.42370332
C        9.77540937      16.51643893      16.31822491
H        8.82129945      16.72371634      15.82454802
N        9.76580832      15.87336717      17.46825678
H        8.89416410      15.62015355      17.92901266
H       10.63010564      15.69762988      17.98229519
N       10.88505018      16.91274958      15.72796809
H       11.79678024      16.71169913      16.13236734
H       10.86026722      17.44634262      14.86081035
Pb       6.77659474      12.88182113      19.65962451
I       -3.08895441       6.29130260       6.71928645
I        6.71924797      16.14319463      19.79929360
I       -6.54080276       5.71573981       9.91793415
C       -3.05185886       9.87472202       9.83146390
H       -3.52613447      10.85884877       9.78290711
N       -1.87759161       9.71012899       9.25837342
H       -1.38066481      10.49589933       8.84759655
H       -1.39302779       8.80916701       9.28166902
N       -3.70629962       8.89906170      10.42914004
H       -3.26326604       7.99907396      10.61024840
H       -4.56843892       9.08958451      10.94382762
Pb       6.77354571      19.45010948      13.11008660
I       10.07106964      19.67335309      13.22396595
I       19.98592387      16.40705010       0.17709063
I        6.51155686      19.27193070      16.33778361
C       10.19864282      22.76917475      16.48433344
H       10.67910757      23.15300392      17.38839673
N        9.50049791      21.65521965      16.56561066
H        9.43463491      21.14769404      17.44930206
H        9.13185244      21.19454696      15.73346124
N       10.33904011      23.45262131      15.36625272
H        9.79721596      23.22322084      14.53345302
H       -2.26907658      11.10383193      21.84284134
Pb       6.70067414      19.42667040      19.60061895
I       10.02242853      19.75846588      19.71839451
I       19.66131874      16.36357799       6.42635581
I       -6.13784820      12.65178609       9.79744769
C       10.01539350       9.88626511      -3.28408771
H       10.49808299      10.57738695      -2.58668530
N       -3.22780933      15.02033503      10.14898646
H       -3.03789219      14.71389322      11.10226549
H       -3.63386965      14.32892105       9.51762044
N        9.74491844      10.30459398      -4.50466545
H       22.32940624      16.39297993       7.86317053
H       23.08907550      17.91501438       8.19650618
Pb      13.18153890      13.11427122      -0.14573931
I        3.53678615      19.42373922      12.97399903
I        0.11724988       3.25309582       6.22730392
I       12.93892624      12.91154354       3.17791949
C       16.80309138      16.31018014       3.28943274
H       17.81400132      15.94573764       3.08577822
N       16.36196494      17.35712574       2.61921134
H        3.75228973       4.65864900       8.45123648
H        2.24811476       4.58689571       9.30969633
N       16.06919656      15.66721471       4.17489441
H       15.16993255      16.03353608       4.50080106
H       16.44440497      14.88060107       4.70457064
Pb      13.18512447      13.13401602       6.45926330
I       16.45163486      12.99350037       6.78789455
I       13.18548707      16.41633502       6.35047235
I       12.94665153      13.43014838       9.67839714
C       16.34415059      16.55123895       9.96486293
H       15.38679924      16.03191633      10.06543354
N       16.34262646      17.83760016       9.68703876
H       15.46963949      18.36103810       9.60337177
H       17.21939927      18.36116736       9.59505037
N       17.45496378      15.85368666      10.11222681
H       18.36082559      16.31667517      10.13614404
H       17.43300204      14.87021257      10.36544406
Pb      13.21417976      13.28477240      12.99449431
I        3.38506110       6.59644740      -0.25141784
I       13.44721049      16.50259242      13.00308677
I        0.21910018       6.62868801       3.16328343
C        3.30298893       9.91778853       2.92071228
H        2.83853638      10.31745003       2.01437470
N        3.38512875      10.69899488       3.97755969
H        2.96555066      11.62424664       3.97687522
H        3.93305080      10.43419371       4.79609386
N        3.75483791       8.68169965       2.89588126
H        4.07843470       8.20871064       3.73987051
H        3.67667124       8.11537924       2.05100649
Pb      13.37568262      19.74322636      13.03065881
I       16.62177566      19.72036890      13.19347806
I       13.72722581      22.97801417      12.78531228
I       13.53133959      19.88747880      16.27777088
C        3.30627358      16.11246321       3.31670532
H        2.50339858      15.36857012       3.31188618
N        3.27198579      17.05757323       4.23178275
H        2.52643240      17.07887494       4.92703097
H        3.98893253      17.78161760       4.27007014
N        4.24857041      16.01229991       2.40602594
H        5.02813519      16.67052440       2.36869220
H        4.23642914      15.24917431       1.72946992
Cs       3.52438556      16.20909282       9.83887051
