233
Lattice="-12.957396986651146 6.351727325886291 13.017959588757243 13.11604327292129 6.668741413988977 13.017959588757243 13.195366416056363 13.17897578392661 -6.508979794378622" Properties=species:S:1:pos:R:3 pbc="T T T"
Pb      -6.42000482       6.48439710      13.10798905
I       -3.18429603       6.70873713      12.73987235
I       -6.49787911       9.69079558      13.54343941
I        6.84796851      19.40176737       9.76020005
C       -3.48800731       9.74906671      16.22829599
H       -4.54995152       9.88970347      16.00751422
N       -2.62547530       9.90232294      15.24476242
H       -2.92686515      10.21869503      14.32774042
H       -1.63536207       9.69519299      15.35383873
N       -3.14213367       9.42666133      17.45521262
H       -2.16654426       9.38377124      17.76255444
H       -3.85976122       9.30974093      18.16987105
Pb       0.20553837      19.45623551       6.38178216
I        3.53099050      19.51536763       6.59779067
I       13.11795510       9.83144988      13.06387862
I       13.48947241      12.79779105      -3.36520141
C        3.02020106       3.36070494       3.45038321
H        2.03008430       3.17040955       3.87462548
N       -9.07973824       8.71563662      16.41232293
H        3.90768619      20.99732871      10.33460128
H       -8.17826570       8.81037945      15.94454512
N        3.28743361       4.57391583       3.01269161
H        4.23218879       4.85608221       2.74672701
H        2.57421806       5.29991570       3.05995237
Pb       0.03410299       6.45971314       6.46666502
I        3.28380362       6.35803243       6.54649507
I        0.23754971       9.72686051       6.70527025
I        0.18093246       6.50556442       9.72157558
C        2.90604164       9.71076638       9.86422595
H        1.87975641       9.87080610      10.20569520
N        3.42857697       8.51269721      10.00607122
H        2.87373920       7.75003934      10.38630012
H        4.39674526       8.29573875       9.75689933
N        3.56059446      10.73134408       9.34970885
H        4.47504871      10.61819529       8.91039375
H        3.10863261      11.63850458       9.26315702
Pb       0.11559693       6.55762177      12.90335703
I        3.33505094       6.41735171      13.31675660
I        0.48868042       9.79822127      13.08697936
I       13.16904651      19.81074489       9.74137107
C        3.46950492       9.60073096      16.07915140
H        3.59430965       8.93033097      15.22304410
N        4.37354650      10.53635282      16.28020575
H        5.15225496      10.64206700      15.63277062
H        4.27776273      11.20113676      17.05132488
N        2.42597078       9.42348557      16.86046961
H        2.24997680      10.02355085      17.66636467
H        1.74407614       8.68889398      16.67071813
Pb       0.38130091      12.99060780       6.44945655
I        3.55117117      13.20501550       6.19511973
I        0.42146374      16.20759163       6.15878799
I        0.79405267      13.37011273       9.72687445
Pb       0.29591390      12.99853603      13.02196190
I        3.48695677      13.42493602      13.25297706
I        0.07327754      16.27559704      12.96080564
I        0.13948728      13.11237526      16.20744907
C        3.30248263      16.48307023      16.56803754
H        3.63183639      17.27474900      17.24916665
N        4.12398279      15.48726899      16.31412331
H        5.03430969      15.43976645      16.76627444
H        3.93155662      14.81448726      15.56440570
N        2.09467562      16.56800762      16.05058081
H        1.67454456      15.79141650      15.54096242
H        1.51036084      17.38861578      16.21520853
Pb       0.08467432      12.98131409      19.49374204
I        3.39736014      12.49634666      19.38193651
I       13.38227889       9.91621017       6.51282643
I        0.03297682      13.07649239      22.70163656
C        3.21907989      16.56220452      22.88622016
H       15.70728652      11.16016061       9.59415702
N        3.28851081      15.61295026      21.97515489
H        2.83124555      15.72779752      21.07352805
H        3.89984619      14.80548005      22.10815741
N        3.68429837      16.42524111      24.11083988
H       -9.14715372       8.84740777      11.45803261
H       16.60970630      10.85517355      11.74795649
Pb       6.71363448       6.57444375      -0.05817995
I       -2.99330752      12.75324181      12.73527192
I        6.92693620       9.85765211      -0.10349037
I        6.53997963       6.68646995       3.23271092
C       10.21408581       9.75542266       3.37039546
H       11.02626258       9.02161499       3.38171280
N        9.19327418       9.56972841       4.17902674
H        9.16562390       8.76827992       4.81017167
H        8.40581761      10.21838010       4.19588756
N       10.31408848      10.78227237       2.55274735
H        9.58411804      11.49589015       2.50595436
H       11.09704456      10.86318395       1.90823074
Pb       6.46558328       6.58309455       6.42308571
I        9.80450823       6.73821280       6.56290410
I        6.33615726       9.84042223       6.71184310
I        6.52443570       6.56954524       9.79226675
C        9.91906193       9.55217967       9.62804690
H       10.41403529       8.57936445       9.70073924
N        8.73538374       9.70195773      10.18672000
H        8.26074496       8.92206140      10.63315547
H        8.22804575      10.58725156      10.14040165
N       10.54893363      10.52391066       9.00028580
H       10.11470376      11.43358007       8.84773116
H       11.43245269      10.35689498       8.52013610
Pb       6.61677152       6.53496389      13.12800313
I        9.84234000       6.45647785      12.85267954
I        6.53236143       9.82129559      13.23769945
I       20.12386725      20.05424380       9.81014364
C       10.18809538       9.74953222      16.42627514
H       -2.08958348       3.71493466       3.71103756
N       10.44508125       8.63142056      15.78187906
H       11.40046901       8.33171214      15.60227651
H        9.69889319       8.00851716      15.47125834
N        8.96626346      10.14841636      16.71574396
H        8.16535645       9.54930045      16.51481759
H        8.80145411      11.00997429      17.22954871
Pb       6.74992526      13.11827166       0.01280470
I        9.98551556      13.33685357      -0.11104631
I        7.00674366      16.38029714       0.47852988
I        7.12763958      12.75820217       3.25391989
C       10.19150084      16.55790850       3.58351332
H       10.85016202      16.57310492       4.45741033
N       10.11997478      15.45140267       2.87688905
H       10.71196369      14.65403399       3.09692425
H        9.51859532      15.37415135       2.05569695
N        9.50916968      17.64542765       3.29622081
H       -4.29529996       4.50893744       8.98768933
H       -3.61166809       5.29114936      10.40011304
Pb       6.79846143      13.09438511       6.49160903
I       10.03499992      13.20138122       6.50724761
I        6.88881563      16.34594251       6.76152922
I        6.52988197      12.94367436       9.74941570
C       10.14229773      16.49127009       9.96053509
H       10.78211347      16.39261006      10.84237015
N        9.18495380      15.60711846       9.77782895
H        9.04730722      14.84726219      10.44107015
H        8.52743456      15.68617131       8.99753330
N       10.37697477      17.48618192       9.13072657
H        9.80053640      17.64533628       8.30563613
H       11.13112565      18.15207769       9.30644201
Pb       6.73073500      13.09593525      13.01771371
I        9.95974932      13.06626271      12.57833187
I        6.67453231      16.32256442      12.88132547
I        7.18411910      13.35350164      16.23897198
C       10.25494126      16.56861829      16.20583603
H       11.00133854      17.36755588      16.15301986
N       10.15204719      15.74102119      15.18924909
H       10.77370922      15.82686652      14.38647035
H        9.47852561      14.97432428      15.18959626
N        9.50982572      16.48596887      17.28731750
H        8.77448483      15.78481692      17.38138704
H        9.60737246      17.17439205      18.03455252
Pb       6.63035900      13.09649233      19.54994562
I       -3.23603877       6.38958875       6.44824775
I        6.37564815      16.31033194      19.26543077
I       -6.78946958       6.79610919       9.73129557
C       -3.18122687       9.81206431       9.92028562
H       -3.83516244      10.04016881      10.76493872
N       -2.03815020      10.45942743       9.82521594
H       -1.79723267      11.16572492      10.51585706
H       -1.40198706      10.31001990       9.03968124
N       -3.57982280       8.90928094       9.04814351
H       -3.00069686       8.62240545       8.25929614
H       -4.46633527       8.42303806       9.16790869
Pb       6.84417544      19.54781776      13.05207477
I       10.05266718      19.41163837      13.11997550
I       19.74434600      16.48867179      -0.23430874
I        7.10915177      20.01715042      16.28387333
C       10.32120332      23.07082068      16.20307616
H       11.11200680      23.82775000      16.19823711
N        9.27825461      23.25291544      15.42103315
H        8.98281552       4.53504309       8.30259072
H        8.51992853      22.57054943      15.37862428
N       10.45521321      22.03076321      16.99750865
H        9.75546218      21.28752162      17.02451911
H       11.28253846      21.93098074      17.58191479
Pb       6.79198796      19.55293765      19.57507394
I       10.11723462      19.35520364      19.53463754
I       19.88188774      16.45016027       6.94358897
I       -6.30293822      12.52231647       9.75492841
C        9.69190844       9.62919388      -3.25551375
H        8.68928128       9.79474087      -3.66086615
N       10.03983799      10.26279187      -2.15698318
H        9.37489363      10.84192212      -1.65053316
H       10.95423779      10.12710020      -1.71314605
N       -2.45607722      15.17652979       9.10482432
H       -1.53669618      14.91767668       9.47075500
H       -2.77547007      14.66029498       8.28334078
Pb      13.26257717      13.20562529      -0.17896335
I        3.53557602      19.36160243      12.78077284
I       -0.04324159       3.22411857       6.21916988
I       13.33663735      13.48502266       3.14001934
C       16.54941504      16.19023605       3.41544896
H       16.20776041      15.29302936       3.94099384
N       15.90756709      16.56427375       2.32846595
H       15.09369993      16.05309830       1.99754299
H        2.97335159       4.22595972       8.31371366
N       17.58600806      16.83716619       3.90358474
H       17.96453884      17.68111605       3.46472193
H       18.06515279      16.51492499       4.74340326
Pb      13.28589269      13.27112057       6.44412396
I       16.55076262      13.35641777       6.35364782
I       13.21256969      16.48423951       6.34629627
I       13.42765637      13.28648513       9.68141435
C       16.52315100      16.80642405       9.73009495
H       16.90167053      17.77307868       9.38582422
N       15.25244276      16.52623666       9.53052041
H       14.63431734      17.20003413       9.08634203
H       14.86192977      15.59864680       9.72545073
N       17.36213324      15.97253774      10.31208603
H       17.03050762      15.13798425      10.80303503
H       18.33002257      16.23391657      10.47370740
Pb      13.17963327      13.03438761      12.92658407
I        3.38682689       6.70744584      -0.11618018
I       13.18031497      16.34205855      13.04685863
I       -0.05907313       6.35254572       3.17706926
C        3.27102293       9.77300793       2.83435568
H        3.38364573       9.64474616       1.75526045
N        2.13617313       9.40785708       3.39510603
H        1.37650642       9.03673800       2.83018779
H        1.94008052       9.56255402       4.38537960
N        4.28259639      10.27473979       3.51349728
H        4.23800773      10.42986444       4.51924636
H        5.13373915      10.57420017       3.04626123
Pb      13.24928337      19.58680209      13.07592772
I       16.59255458      19.37880055      12.99248869
I       13.08474400      22.89915102      13.05518274
I       13.33425513      19.49575541      16.27183849
C        3.31066117      16.08034966       3.13031678
H        2.98125576      15.28322189       3.80369725
N        3.45730625      17.29643404       3.61810021
H        3.23958135      17.52466972       4.58551730
H        3.70450389      11.54925463      22.55522602
N       16.67467026      22.45573772      14.88883364
H       16.95517608      23.18449414      14.23033287
H       16.56096286      21.50999149      14.51388573
Cs       3.71648776      16.37886290       9.78643428
