233
Lattice="-12.957396986651146 6.351727325886291 13.017959588757243 13.11604327292129 6.668741413988977 13.017959588757243 13.195366416056363 13.17897578392661 -6.508979794378622" Properties=species:S:1:pos:R:3 pbc="T T T"
Pb      -6.57605215       6.30443238      13.01125232
I       -3.25348697       6.59269924      12.98344669
I       -6.63634864       9.62378244      12.96545720
I        6.58992845      19.43677935       9.71910950
C       -3.05139211       9.64431013      16.20669203
H       -2.25339647       8.89669840      16.17364074
N       -4.20995108       9.35616449      15.64995852
H       -4.35709566       8.47600483      15.16412378
H       -4.96659754      10.03951284      15.61712143
N       -2.81519744      10.79212425      16.80817916
H       -3.53608115      11.51022469      16.88038061
H       -1.91195228      10.99097759      17.22944991
Pb       0.18381899      19.54564503       6.55513912
I        3.42657484      19.07359512       6.62359063
I       13.41474618       9.92322948      13.10312796
I       13.27153597      13.58618349      -3.17744074
C        3.71405321       3.20803425       3.53081457
H        4.78253928       3.41036929       3.64457733
N        3.34153452       2.08618334       2.95338053
H       -8.92120588       7.74337929      15.69865268
H        2.35923276       1.79264319       2.92396041
N        2.86187144       4.11491205       3.96143123
H        1.85616072       3.98940927       3.87271814
H        3.17189425       4.92934041       4.49003709
Pb       0.05349716       6.50593902       6.59100409
I        3.28991234       6.64448493       6.64909443
I        0.16153668       9.76433132       6.43356573
I        0.01748298       6.67630154       9.87656522
C        3.00255449       9.77838626       9.65718893
H        2.00498904      10.02762924       9.28431645
N        3.22764493       8.54929485      10.07089023
H        2.47457584       7.86120721      10.05346703
H        4.17058590       8.20244276      10.25805693
N        3.91581323      10.72681283       9.67656846
H        4.81725738      10.58618588      10.13031840
H        3.71679452      11.65519368       9.31728117
Pb       0.11547936       6.65161469      13.20246790
I        3.28674036       6.37033223      13.28742305
I        0.07138574       9.83933071      13.26795012
I       13.27277387      19.89271880       9.90880812
C        3.32276109      10.14052708      16.18304687
H        2.65344051      10.67058022      15.49936401
N        4.61572885      10.38521279      16.10604532
H        4.98011843      11.04083442      15.42214958
H        5.28135617       9.91226599      16.72010875
N        2.79881643       9.30087787      17.05175206
H       16.56784655      21.93106585      11.18522321
H        1.79962788       9.11859498      17.07346267
Pb       0.19704587      13.04506395       6.63256796
I        3.45973404      13.28830643       6.49771054
I        0.02851567      16.27880569       6.90296182
I        0.66575834      12.95534701       9.84463789
Pb       0.14872799      13.09157014      13.09061207
I        3.45246434      13.14347470      13.34812859
I        0.22482786      16.33063199      12.65328251
I        0.18220385      13.20433180      16.33857643
C        3.42798368      15.91498849      16.44316394
H        3.48449575      14.82918847      16.55531562
N        3.55739638      16.65971574      17.52178798
H        3.70942843      16.22230593      18.42623658
H        3.45586383      17.67387039      17.50466438
N        3.23430698      16.40789576      15.23944212
H        3.19350530      17.41101088      15.05325756
H        3.15796760      15.78266268      14.43942337
Pb       0.10090933      13.18556419      19.62540335
I        3.35720182      13.61899155      19.72920625
I       12.85271480      10.01097818       6.57553161
I        0.00504340      13.19123964      22.86639480
C        3.37925724      16.64180945      23.06097757
H       16.35565852      11.05093466      10.83036193
N       15.31724775      10.27918281       9.21311430
H       14.57790384      10.97745221       9.29626810
H        2.26558095      15.92209494      21.50364713
N        4.37504116      15.78702016      23.00045622
H        4.43746288      15.08476363      22.26316588
H       -7.97857425       9.17084787      10.65930220
Pb       6.56139471       6.54647139      -0.10078564
I       -3.07612330      13.11670886      12.78113162
I        6.43547650       9.84439456      -0.28077127
I        6.66657390       6.41878771       3.27631072
C       10.18766520       9.70156782       3.18726087
H       10.92864953       8.89752673       3.24150612
N       10.22448630      10.51098383       2.14874634
H       10.94375594      10.41270110       1.43422279
H        9.60348482      11.31860078       2.08256659
N        9.30279266       9.80345257       4.15311637
H        8.59152642      10.53855667       4.14605502
H        9.30657410       9.15066185       4.93617338
Pb       6.47465476       6.53111032       6.55425683
I        9.79087823       6.89951798       6.51844366
I        6.44637403       9.81419366       6.52762465
I        6.38110672       6.42468890       9.82707247
C        9.91257179       9.79360993       9.51377841
H       10.34381876       9.47579130       8.55985177
N        8.61305947      10.00176601       9.57460717
H        8.02678401       9.88645012       8.74573500
H        8.13411235      10.11875960      10.47209522
N       10.72186941       9.96059260      10.53891296
H       10.44038847      10.50279782      11.35863613
H       11.69412135       9.67090632      10.49115906
Pb       6.50970390       6.55030749      13.10304694
I        9.79065652       6.77168752      13.19268226
I        6.44193640       9.83527100      12.63219698
I       19.56872613      20.06478940       9.81618958
C        9.83747377       9.60251946      16.19551832
H       10.15156354       8.65805042      15.74258313
N        8.76931320      10.20009444      15.70592135
H        8.26439938       9.80580501      14.91502066
H        8.46970783      11.12366189      16.02953600
N       -2.57583183       3.41786294       4.17875281
H       -2.87357526       4.24443564       4.70557812
H       -1.75807199       2.92649052       4.53140415
Pb       6.62403085      13.13813417      -0.00629062
I        9.90952059      13.36482916      -0.15354941
I        6.51053170      16.36367311      -0.10726808
I        7.15984961      12.84997083       3.28123067
C       10.26179699      16.44357746       3.05289940
H        9.98166700      16.00424165       2.09127397
N       11.20445830      15.85618228       3.75989544
H       11.68493131      15.01978055       3.42334430
H       11.55253629      16.25277080       4.63753630
N        9.63825009      17.53242896       3.45545584
H        9.84973385      17.98421547       4.34914392
H       -4.27478461       4.79234167       9.39303723
Pb       6.80728352      13.12474893       6.50401235
I        9.97420626      13.11894135       6.81132129
I        6.88136737      16.30723088       6.62506849
I        6.38267511      13.41462525       9.77391808
C       10.06109996      16.18495569       9.57046509
H       10.08756081      15.50772938       8.71077651
N       11.05324132      17.03144035       9.73465307
H       11.82686717      17.05684639       9.07223476
H       11.06356186      17.70304485      10.50394628
N        9.03658648      16.10561595      10.39177429
H        8.95248729      16.72184405      11.19935126
H        8.28263853      15.43777634      10.23678326
Pb       6.68113561      13.17190077      12.96484381
I        9.92359946      12.90991495      12.84282164
I        6.45533900      16.32966859      12.91810306
I        7.07331520      13.50674748      16.27818650
C       10.31018548      16.51104852      16.20947692
H       11.15890846      17.20162831      16.17415681
N       10.23852917      15.66217988      17.21270134
H       10.96169293      15.65251714      17.92995974
H        9.50807911      14.95064459      17.25857917
N        9.41778583      16.57111419      15.24405634
H        8.57555879      15.99542053      15.25703606
H        9.49755138      17.27192909      14.50732543
Pb       6.63003636      13.09482207      19.50274287
I       -3.26702060       6.17413655       6.64049169
I        6.87897623      16.27914400      19.93165193
I       -6.88548607       5.99046878       9.72124869
C       -3.10083056       9.71440459       9.49276800
H       -3.35870168      10.17423969       8.53505911
N       -2.03104301      10.15156829      10.12338060
H       -1.46529209      10.90591500       9.74161118
H       -1.72908920       9.77123061      11.02203474
N       -3.88069349       8.75804079       9.95029510
H       -3.67462591       8.25669364      10.81961924
H       -4.70530769       8.48081095       9.42510738
Pb       6.74180223      19.59213475      13.02601174
I        9.97919856      19.35875802      12.71818871
I       19.59711897      16.45863980       0.03844534
I        6.91981970      19.35959605      16.26378234
C       10.36800833      22.92003974      16.19835111
H       11.31189014      22.67324365      15.70147807
N       10.04912940      22.27201258      17.29753848
H       10.65736486      21.54672656      17.66844685
H        9.20368911      22.49002041      17.83654319
N        9.60585116      23.84673030      15.65824424
H       21.67811883      17.79083906       3.05916753
H       -3.29937378      11.17254775      21.33033706
Pb       6.84101575      19.50272849      19.55877763
I       10.08993194      19.39815356      19.82255720
I       20.09313963      16.48209342       6.50298252
I       -6.44340844      12.77511557       9.76665069
C        9.85696062       9.91554563      -2.74984923
H        9.85660357       9.78807566      -1.66489382
N        9.82207090      11.13681486      -3.23816885
H        9.79231642      11.93546932      -2.60580398
H       22.94407524      18.00322857       8.77713406
N       -3.06162094      15.18205298       9.52458991
H       -3.04319727      15.21696313       8.50742434
H       -3.05838472      14.26558849       9.96251108
Pb      13.22079387      13.23808620       0.04681400
I        3.48991458      19.43918670      13.04181959
I        0.25012625       3.26953263       6.76845758
I       13.34550030      12.89813373       3.29596207
C       16.30334248      16.41630986       2.96615629
H       16.38984991      16.89175292       1.98541931
N       15.52383933      16.98062023       3.86491200
H       14.97191986      17.81061460       3.64544325
H       15.39683420      16.57878681       4.79314177
N       16.98825105      15.31703424       3.19866640
H       16.90336035      14.80850468       4.08526283
H       17.56356791      14.89047255       2.47803260
Pb      13.20135940      13.19715719       6.59431388
I       16.52051987      13.51481563       6.42913123
I       13.21336010      16.50751826       6.76025546
I       13.30783993      13.33058667       9.81732348
C       16.37675904      16.47009730       9.87094629
H       15.50664255      16.42108282       9.20990215
N       17.58035549      16.46468740       9.33021977
H       17.72307220      16.42114148       8.32568815
H       18.40926616      16.47637749       9.92362396
N       16.18613499      16.54132120      11.17204156
H       16.98773473      16.56596540      11.80954032
H       15.25366327      16.51385815      11.59003085
Pb      13.19291533      13.12445543      13.08675578
I        3.33327747       6.44641917       0.02861960
I       13.16611809      16.47745882      13.27384040
I        0.09402248       6.45557881       3.33392388
C        3.07461747       9.81059192       3.37901757
H        2.02187040      10.10262145       3.37026069
N        3.38780316       8.56962693       3.06747606
H        2.66141071       7.89288562       2.84244267
H        4.35135845       8.23267910       3.07132230
N        3.97592655      10.72459357       3.68589228
H        4.96200111      10.49530792       3.78712184
H        3.69598720      11.65564000       3.97812914
Pb      13.25502280      19.71746878      13.17629617
I       16.49007444      19.92633186      13.32730178
I       13.07917676      23.03740544      13.04189198
I       13.01318958      19.88113043      16.41073447
C        3.12481031      16.04682749       3.13684007
H        2.50530679      15.15146262       3.02475182
N        3.87838126      16.15393669       4.21000397
H        3.85368712      15.43528164       4.93513134
H        4.43320852      16.98961208       4.39575805
N       16.20524419      23.62055913      15.19952238
H        3.60293779      11.27119712      21.73354038
H        2.38319797      10.32932412      20.91408899
Cs       3.35634123      16.36991968       9.75162252
