233
Lattice="-12.957396986651146 6.351727325886291 13.017959588757243 13.11604327292129 6.668741413988977 13.017959588757243 13.195366416056363 13.17897578392661 -6.508979794378622" Properties=species:S:1:pos:R:3 pbc="T T T"
Pb      -6.36416331       6.36131740      13.05074931
I       -3.01015623       6.63161798      12.74846023
I       -6.15125718       9.65763659      12.94909859
I        6.40377368      19.40771443       9.74404162
C       -3.17347269       9.62576120      16.24490601
H       -2.49620353       9.36806893      17.06313928
N       -2.65670635       9.93619879      15.07218391
H       -1.65568979       9.88501968      14.89090017
H       -3.24536698      10.26259910      14.30670170
N       -4.47220827       9.60896527      16.46527333
H       -5.13044504       9.81039847      15.71221595
H       -4.86222990       9.41335974      17.38712646
Pb       0.45967733      19.52787433       6.53070640
I        3.66811543      19.95808647       6.46149624
I       13.21578332       9.94479410      12.87161574
I       13.55499339      13.22727820      -3.18939156
C        3.16001698       3.01800207       3.37350097
H        2.66783197       2.10250201       3.03481660
N        4.11701641       3.52537019       2.62364459
H       -8.56354711       9.41988187      14.77712149
H        4.61530376       4.37986849       2.88250746
N        2.76425152       3.55243831       4.50850572
H        3.18004498       4.40672556       4.89333897
H        2.01175349       3.13378923       5.04934479
Pb       0.02220812       6.56810455       6.45384655
I        3.37380546       6.44231532       6.64011034
I       -0.12031123       9.77177522       6.67880919
I        0.40597039       6.75413030       9.73749933
C        3.66173995       9.68860851       9.73375968
H        4.50340151      10.38202289       9.81558509
N        2.48203217      10.16653717       9.38711031
H        2.34100937      11.15251672       9.19032880
H        1.68255633       9.54756708       9.25266858
N        3.86014541       8.41354337       9.99423323
H        3.08539188       7.74792629       9.97697777
H        4.78619782       8.04532279      10.21107078
Pb       0.25804919       6.50124158      12.98355512
I        3.49138918       6.15428712      12.90153105
I        0.56732192       9.80012449      13.23263706
I       13.11187439      19.89664798       9.70318630
C        3.79779753       9.91253771      16.36346476
H        4.80715998      10.02317647      16.76838251
N        3.65643967       9.53329016      15.11350167
H        4.47413932       9.37344545      14.52364206
H        2.73929997       9.52028563      14.65017934
N        2.78302321      10.15476533      17.16839459
H        1.82272363       9.98851405      16.87984854
H        2.92842897      10.47350283      18.12019347
Pb       0.14964624      13.03963465       6.47278712
I        3.46522230      12.70399399       6.43990190
I        0.77548453      16.26762068       6.81058402
I        0.08296918      12.96849202       9.78940405
Pb       0.25108355      13.11882165      13.15478817
I        3.44101110      13.23538472      12.71007051
I        0.29315740      16.29213899      12.68425442
I        0.27714136      13.27572518      16.37820224
C        3.14062051      16.14658518      16.47591055
H        2.18430548      16.38801108      16.94874310
N        3.78646552      15.07101193      16.87544095
H        3.42432509      14.48927481      17.62989876
H        4.67834010      14.78085664      16.46883025
N        3.58366255      16.94657474      15.52943544
H        4.44236445      16.75256471      15.01117729
H        3.05642951      17.77370236      15.26103476
Pb       0.14609149      12.97666992      19.69048837
I        3.46064692      13.07685311      20.05757823
I       12.92271260       9.90251149       7.08234894
I       -0.05231407      12.54028227      22.92244645
C        3.45468791      16.41512568      22.54141215
H        2.88696683      16.17005461      21.63908208
N       15.98734553      11.05122589      10.28044599
H       15.15351963      11.58742686      10.03584709
H       16.47083988      11.34041752      11.13284063
N        4.53562795      15.71063710      22.81278182
H       -8.01857138       9.22157980      10.62730190
H        4.80653639      14.92458277      22.22846342
Pb       6.66465199       6.60828173       0.03245034
I       -3.04262474      13.07369203      13.00887430
I        6.74362974       9.84851499      -0.06095950
I        6.49092355       6.56062081       3.28394551
C       10.29668733       9.95742504       3.33586550
H       11.31477456      10.16328027       2.99401774
N       10.09035248       9.74963562       4.61780566
H       10.86633299       9.78644675       5.28107415
H        9.14786169       9.66238258       5.01401326
N        9.32962567       9.93039566       2.43903856
H        8.38137978       9.66507035       2.68975031
H        9.51283591      10.09904889       1.45760832
Pb       6.67616414       6.52841438       6.57189781
I        9.90992393       6.36411036       6.60946715
I        6.85712718       9.79889601       6.45248070
I        6.96301599       6.36854418       9.80427582
C        9.74113023       9.87071203      10.17996100
H        9.33047150      10.02199553      11.18155925
N       10.15727162       8.66608605       9.84847980
H       10.11222243       7.89684479      10.50937302
H       10.48244461       8.44686176       8.90770778
N        9.79466215      10.90597070       9.36806865
H       10.27133663      10.86131782       8.46839362
H        9.38945320      11.79605909       9.64075077
Pb       6.69188095       6.45385905      13.05920786
I       10.01961086       6.48263992      13.44704910
I        6.57368848       9.75999097      12.75256023
I       19.52930656      19.91291973       9.73067309
C        9.90852637      10.11812757      16.04806862
H        9.64075758      10.95309635      15.39246916
N        9.03593658       9.71908390      16.94913089
H        8.14354788      10.19307793      17.05740478
H        9.30886626      15.44115267      -1.95426473
N       -2.01894112       2.90190256       2.88098975
H       -1.72676355       2.08969328       3.42449632
H       -1.40039630       3.18508687       2.11846069
Pb       6.58370865      13.13023883      -0.10459261
I        9.86460210      13.18254264      -0.34505641
I        6.35821633      16.32258420       0.02172145
I        6.66051147      13.18792708       3.21543171
C        9.81966313      16.39207401       3.48004617
H        9.13455343      16.40194771       4.33259336
N        9.67182225      15.44680728       2.57539806
H        8.92805442      14.75443548       2.66254911
H       10.26123776      15.40672725       1.74369130
N       10.75148051      17.31879084       3.41426366
H       11.42931408      17.33434532       2.65053653
H       10.81007197      18.04825842       4.12457189
Pb       6.77456612      13.05078413       6.42450308
I        9.97042950      13.24401728       6.28282123
I        6.34281397      16.31541990       6.57182091
I        6.71545464      13.32995273       9.71916484
C       10.22898699      16.39875253       9.82697717
H       11.25032420      16.75600848       9.67407159
N        9.35884799      17.21024421      10.39593661
H        9.63739333      18.12555202      10.74627767
H        8.40512182      16.91697787      10.59848799
N        9.91378223      15.18708600       9.42374401
H        8.96879351      14.80397446       9.52747126
H       10.61802467      14.57768877       9.01301331
Pb       6.66444928      12.96912784      12.97101448
I        9.92871836      12.91386250      12.95958851
I        6.41946530      16.29693390      12.95116934
I        6.66900130      12.84458583      16.23197404
C        9.86676798      16.36295976      16.12767511
H        9.06543826      16.15246765      16.84300273
N        9.56256619      16.49121336      14.85033764
H        8.60622826      16.39164811      14.50779187
H       10.30884407      16.57926696      14.15488837
N       11.09835698      16.49149454      16.57677788
H       11.85896569      16.73227971      15.94086350
H       11.33912311      16.39494125      17.56354368
Pb       6.78127146      13.01101792      19.53419526
I       -3.16270961       6.41168498       6.31459950
I        6.95353391      16.29004549      19.32776771
I       -6.06448472       6.23054153       9.75836823
C       -3.00687880      10.03743309       9.62564483
H       -2.83828965      10.90770276       8.98589054
N       -4.01980331       9.24405536       9.34985021
H       -4.61791999       9.41356704       8.53945313
H       -4.23195415       8.41652913       9.90930114
N       -2.18699825       9.83529914      10.63717723
H       -2.29283891       9.02522448      11.25141351
H       -1.40982654      10.46732460      10.80847033
Pb       6.63399895      19.63001309      12.98868103
I        9.94884752      20.02093092      12.69328283
I       19.59650120      16.45707869       0.06214141
I        6.63966691      19.47541351      16.23719731
C       10.13206869      22.82125729      16.24158443
H       10.47039842      23.46772270      15.42614281
N        9.66708487      21.62530468      15.94907822
H        9.65957866      21.27636101      14.98842635
H        9.40647652      20.96951572      16.68666373
N       10.20365314      23.28116109      17.47462316
H        9.79844216      22.75865463      18.25167983
H       23.52712387      17.85675612       4.65549859
Pb       6.75719061      19.51828160      19.55605384
I       10.05679901      19.87721784      19.36099110
I       19.93514743      16.43044757       6.72429563
I       -6.29629018      12.82369763       9.77161478
C        9.93387605       9.71694658      -3.01007507
H        9.88158300       8.96552737      -2.21563311
N        8.92975711      10.55677106      -3.14485904
H        8.13511269      10.52570114      -2.51056094
H       22.05848049      17.96305273       9.16811915
N       -1.95967409      16.08724691       9.23357285
H       -1.85684499      16.76651478       8.48014549
H       -1.21388652      15.40302372       9.35421880
Pb      13.09739116      13.09394945       0.01431147
I        3.42995827      19.68699588      12.96100954
I       -0.41762095       3.24264965       6.77552644
I       13.32404389      12.70295721       3.24588728
C       16.44390920      16.62176288       3.39645737
H       15.99216335      17.49116091       3.88268799
N       15.81653708      16.08410482       2.37069525
H       14.93406703      16.45944123       2.02889064
H       16.19862321      15.28636767       1.85522184
N       17.58597997      16.16909593       3.86530906
H       18.03758022      15.32852452       3.48907216
H       18.03452505      16.59622842       4.67506811
Pb      13.25371534      13.18440308       6.47544401
I       16.48998181      13.06437165       6.60722426
I       13.28200683      16.42298349       6.43076021
I       13.19168044      13.46334049       9.73303198
C       16.37708069      16.13781319       9.45550986
H       16.24834102      15.32802290       8.73019601
N       15.48945718      17.10765499       9.47302467
H       14.72479194      17.11710216       8.80001831
H       15.57943806      17.90753874      10.10154660
N       17.41088201      16.08191916      10.26734313
H       17.55628024      16.77897774      10.99780531
H       18.07198064      15.30645333      10.21669144
Pb      13.18841344      13.20621093      13.04933059
I        3.37154417       6.67871726       0.11894208
I       12.83736364      16.46969802      13.10309990
I        0.23420832       6.57321737       3.25689910
C        3.34469844       9.77343101       3.21465524
H        3.07848815       9.03158893       2.45554978
N        3.43869365       9.38957513       4.47184991
H        3.30632591       8.42034117       4.75987310
H        3.67067563      10.06242131       5.20353384
N        3.55760621      11.01934877       2.83827439
H        3.87004447      11.71885120       3.51122160
H        3.47021156      11.31500785       1.86457815
Pb      13.19666121      19.70788077      12.91216478
I       16.44063709      19.30447141      12.56600380
I       13.42113770      22.92696134      13.10092291
I       13.15367641      19.62553215      16.22859079
C        3.30983025      16.27386821       3.01989841
H       15.87462785      23.31760199      15.17066123
N        4.28563479      17.00605844       3.51002544
H        4.55065977      17.88415094       3.07170291
H        4.83312187      16.70998385       4.32500692
N        2.96577276      15.09987702       3.51186262
H        3.40701132      14.72216574       4.35127684
H       15.25472582      21.27056116      16.19474803
Cs       3.49858661      16.32348955       9.81594856
