233
Lattice="-12.957396986651146 6.351727325886291 13.017959588757243 13.11604327292129 6.668741413988977 13.017959588757243 13.195366416056363 13.17897578392661 -6.508979794378622" Properties=species:S:1:pos:R:3 pbc="T T T"
Pb      -6.44162670       6.39012943      13.09450192
I       -3.16874981       6.46590806      13.46343813
I       -6.51956413       9.63961316      13.14046228
I        6.42551113      19.32732064       9.83023355
C       -3.36331165       9.94468004      16.19678447
H       -3.31180910      10.84280422      16.81920226
N       -2.66116170       9.91181055      15.08395640
H       -2.05307662      10.68461877      14.82557125
H       -2.66509277       9.08973870      14.47661218
N       -4.13104612       8.95292503      16.60001075
H        8.94231816      21.28940703       9.53000930
H       -4.66476603       9.02783355      17.46588292
Pb       0.30854972      19.36263105       6.46746643
I        3.52420239      19.25443379       6.42303135
I       13.12491154       9.83629836      12.98555000
I       13.49808386      12.89284937      -3.33159442
C        3.01721053       3.30793367       3.22387277
H        2.03546263       3.04795637       3.62901793
N        3.96044507       3.68606091       4.06832020
H        3.74779784       3.80817457       5.05380955
H        4.81100185       4.14625739       3.73407821
N        3.21278663       3.20379937       1.92690998
H        4.14110172       3.32305752       1.50407362
H        2.44102463       2.96096107       1.30656116
Pb       0.08305222       6.46683311       6.51239120
I        3.33852135       6.23109789       6.81442541
I        0.31158373       9.65894268       6.99325438
I       -0.05215523       6.11822537       9.75705013
C        3.44147175       9.80318257       9.49141980
H        3.08490387      10.32975771       8.60160540
N        4.47560638      10.29868697      10.14053038
H        4.91913285      11.16978527       9.84734929
H        4.89570855       9.82171656      10.94017940
N        2.81443721       8.70670424       9.85615870
H        3.07562449       8.18236690      10.69715590
H        2.01238078       8.36698650       9.33106714
Pb       0.13552412       6.47928527      13.06183437
I        3.39258853       6.50648209      12.81344077
I        0.14967104       9.70505177      12.68925061
I       13.30164590      19.88801552       9.79147388
C        3.36059086       9.55220620      16.06273676
H        3.33864502       8.79277742      15.27516290
N        4.38584578      10.37548151      16.10942224
H        5.12681853      10.32584913      15.41059735
H        4.43351182      11.13172128      16.79394209
N        2.36160283       9.59160644      16.91877839
H        2.34962680      10.25770193      17.69265496
H        1.60074781       8.91405970      16.85997286
Pb       0.19891277      12.85858809       6.49361437
I        3.36722654      13.16537850       6.08733464
I        0.14691049      16.14573185       6.50917460
I        0.78249366      13.19786407       9.71042981
Pb       0.21435873      12.97075284      12.88829104
I        3.44457483      13.17441632      13.23067059
I        0.29030696      16.24654155      13.01520750
I       -0.27855558      12.80903372      16.15772000
C        3.26480435      16.09813716      15.96286037
H        3.51504985      15.57666415      15.03378785
N        2.14831547      15.76536090      16.57276341
H        1.54415277      15.03298030      16.20198800
H        1.86051585      16.17707213      17.46499924
N        4.09345428      17.01759746      16.40683389
H        3.90426461      17.55722920      17.25719997
H        4.93811212      17.24566576      15.88933165
Pb       0.08597741      12.93168630      19.49000618
I        3.38610261      12.63947109      19.14067783
I       12.96211042       9.89900820       6.43605878
I        0.28397353      13.27932831      22.70308658
C        3.81228445      16.24774940      22.71017795
H        4.76621929      16.72919158      22.47804796
N        3.42730446      15.22854169      21.97169594
H        3.98920824      14.91722599      21.18407044
H        2.54851560      14.73237853      22.15532997
N       16.06845398      10.36036134      10.70507994
H       15.15791280       9.97202744      10.95384704
H       16.37024347      11.18479245      11.22643306
Pb       6.63746865       6.56119003       0.01699580
I       -3.05089706      13.09563802      12.51415146
I        6.70609743       9.77837010       0.25888033
I        6.58555580       6.32232777       3.31370943
C       10.15510310       9.88273578       3.51178387
H       11.15178398       9.51612266       3.77231560
N        9.13364062       9.06437604       3.66448224
H        9.24681627       8.15279970       4.09924734
H        8.19970870       9.32214198       3.35545144
N       10.03559388      11.10903165       3.04755698
H        9.11517578      11.54720993       2.93028443
H       10.84982245      11.72151865       2.97247862
Pb       6.55318092       6.55185583       6.59370953
I        9.83664424       6.50512289       6.57837856
I        6.41075340       9.82325070       6.52397344
I        6.88455657       7.01258939       9.81631963
C       10.14619433      10.12038996       9.78985910
H       11.02428292      10.77335994       9.82289210
N       10.03383322       9.17346870      10.69644641
H       10.74890346       9.04615979      11.40815535
H        9.23570626       8.53587570      10.70120577
N        9.25098874      10.32910838       8.84831918
H        8.44056744       9.72034113       8.73049119
H        9.37762386      11.08412951       8.17190649
Pb       6.64297105       6.52492201      13.00687563
I        9.89302166       6.48235911      13.20180785
I        6.66676581       9.81836489      13.16067640
I       19.49261343      19.78143852       9.75161518
C        9.89166077       9.98107125      15.77044328
H        9.51546923      10.29779226      14.79358216
N       -2.01284819       3.68646771       3.10459660
H       11.69625913      10.86223662      15.47273158
H       -1.62036879       3.48209502       4.02999531
N       -4.01237030       2.59098179       3.52333589
H        9.52224323      15.31432489      -2.13384794
H        8.17531148       8.99114657      16.22842875
Pb       6.60896559      13.04831729       0.04299340
I        9.90229033      13.21120053      -0.34186826
I        6.76325911      16.27710622       0.19236901
I        6.80764665      12.89344989       3.25383262
C        9.70238642      16.63083706       3.39143706
H        8.82911511      17.28903471       3.42709243
N        9.87933451      15.88378125       2.32332208
H        9.20059190      15.89922539       1.56189025
H       10.65383092      15.22095564       2.26083257
N       10.52267759      16.62892251       4.42285734
H       11.37254534      16.06538360       4.42706568
H       10.36606893      17.24643469       5.21594025
Pb       6.57606890      13.14115663       6.46967056
I        9.86020366      13.28035058       6.70823868
I        6.74885700      16.33042623       6.39007858
I        6.25601094      13.53190121       9.73646488
C        9.95749394      16.63317272       9.93955463
H       10.41261280      17.37641806      10.60086289
N        8.69620287      16.31016586      10.14259367
H        8.15640417      16.73466209      10.89179150
H        8.20590046      15.63798673       9.55143695
N       10.69048344      16.10067455       8.98552090
H       10.32678847      15.36711939       8.36804231
H       11.65383478      16.38655824       8.83123779
Pb       6.68551201      13.12866213      13.09641981
I        9.95772375      13.08553123      12.90468685
I        6.69798821      16.38029792      13.49193506
I        6.91840979      13.06297893      16.26370721
C       10.20332104      16.31767018      16.57480725
H       10.87387128      16.59792632      17.39182633
N        9.13431449      17.05724462      16.36542916
H        8.94959714      17.87309387      16.94310421
H        8.48347712      16.85790168      15.60156575
N       10.51048716      15.26193496      15.85169399
H        9.92136969      14.92491242      15.08828430
H       11.36216426      14.72982132      16.04056944
Pb       6.79659654      13.02411783      19.48451453
I       -3.16073949       6.48416722       6.37415815
I        6.47505027      16.23873829      19.59642363
I       -6.23635546       6.60897535       9.81458839
C       -2.83666033       9.56139582       9.59429346
H       -1.83630778      10.00313882       9.59184266
N       -3.83531532      10.26802075       9.10363034
H       -3.67426013      11.17264888       8.66680730
H       -4.77245783       9.87923974       9.01413195
N       -2.99202613       8.36270174      10.11549036
H       -3.89772894       7.88032315      10.08808941
H       -2.18105059       7.81619407      10.40270880
Pb       6.67646482      19.63054627      13.07864314
I        9.93168851      19.44311710      12.95563409
I       20.11861321      16.49010537       0.30404037
I        6.53789636      19.88230761      16.33212840
C       10.23724026      22.79506498      16.75624687
H       10.59373077      22.60692660      17.77317363
N        9.96862416      24.03694750      16.40902515
H        9.81000760       5.25762753      10.58225286
H       -3.44885360      11.12004630      21.95652677
N       10.09722867      21.76737532      15.94510274
H        9.66652822      21.85943221      15.02580298
H       10.39040744      20.83740697      16.23048192
Pb       6.69764969      19.51073913      19.59468457
I        9.95355147      19.46888982      19.38065739
I       19.75781875      16.45134972       6.82019169
I       -6.48533803      12.71912270       9.78717173
C        9.79374771       9.95968973      -3.57357360
H        9.93431441      10.63658135      -4.42221708
N        8.75903044      10.15905706      -2.78549743
H        8.10932466      10.92614134      -2.95561999
H        8.60156590       9.60306029      -1.94343404
N       -2.29689758      15.33687787       9.61844622
H       -2.40185675      14.66372452      10.38528405
H       -1.49656933      15.23120810       8.99984389
Pb      13.13968465      13.07958045      -0.13521585
I        3.45141803      19.45202255      13.02987665
I       -0.00138040       3.21721495       6.13287316
I       12.88304436      13.53957882       3.18366761
C       16.29022223      16.73472780       3.30163222
H       15.73091459      17.65813101       3.47717970
N       17.11201634      16.31424034       4.23789919
H       17.21195108      16.82640313       5.10989218
H       17.72187774      15.50448429       4.09108506
N       16.10590280      16.10663182       2.15959952
H       16.51482174      15.19140928       1.96470615
H       15.46064782      16.47011774       1.46116881
Pb      13.18795036      13.14203657       6.48130202
I       16.37524727      12.85764297       6.39439134
I       13.57798543      16.40150315       6.66484542
I       13.30312532      12.97123099       9.70586159
C       16.16412546      16.40813771       9.80268124
H       15.22380706      16.04128126      10.22353996
N       16.42998671      17.69392046       9.89853188
H       15.75821451      18.33584076      10.31311354
H       17.33205846      18.08771025       9.61962892
N       16.97764957      15.54365686       9.23285418
H       17.81590595      15.84429727       8.72773928
H       16.74667760      14.55714833       9.19138264
Pb      13.24559389      13.24422945      12.85517044
I        3.39780701       6.71421370      -0.16019455
I       13.16155344      16.39654110      12.58382113
I        0.59928751       6.80651538       3.24179190
C        3.60807907       9.95117875       3.24274129
H        4.33548110      10.76768133       3.29177046
N        3.54430432       9.11334501       4.25506202
H        4.18170550       9.21054076       5.04578442
H        2.88503634       8.33358715       4.25878193
N        2.84436232       9.86140336       2.17536034
H        2.15746000       9.11394737       2.07347973
H        2.91561184      10.55165075       1.42807813
Pb      13.13646521      19.63556542      13.11877296
I       16.47203484      19.64075446      13.18011367
I       13.34256361      22.88692855      13.45588625
I       13.00960889      19.21369564      16.30120922
C        3.55733038      16.33396108       3.60012654
H        4.00151055      16.20786180       4.59204683
N       16.20952353      21.93719845      16.00199450
H        3.14018652      14.35880555       3.43527417
H       15.72506929      21.99780109      15.10592629
N       16.64528345      24.21248249      16.09934254
H        3.13494559      11.21315566      21.65374979
H        3.76479849      11.82898831      23.15712703
Cs       3.33463834      16.38423817       9.80690925
