233
Lattice="-12.957396986651146 6.351727325886291 13.017959588757243 13.11604327292129 6.668741413988977 13.017959588757243 13.195366416056363 13.17897578392661 -6.508979794378622" Properties=species:S:1:pos:R:3 pbc="T T T"
Pb      -6.34250955       6.38420887      13.06658599
I       -3.08451822       6.23794284      13.37854908
I       -6.24542082       9.65812009      12.91118239
I        6.63703699      19.57256621       9.80669070
C       -3.02458350       9.74973082      16.49899244
H       -2.69984987      10.29327756      17.39175205
N       -4.12224547      10.15108023      15.89276804
H       -4.63182651      10.97718726      16.20893899
H       -4.45310479       9.72850140      15.02228628
N       -2.31513201       8.71871265      16.09808170
H       -2.57444655       8.16295171      15.27717163
H       -1.44608045       8.46496597      16.56329917
Pb       0.33101694      19.53366689       6.46697994
I        3.59111423      19.76762201       6.39926299
I       13.09830228       9.90034194      12.72897478
I       13.41232543      13.57414251      -3.39102227
C        3.37937796       2.97302391       3.40460868
H        3.07500193       2.07467719       3.95056951
N        4.60893242       3.41598831       3.57796097
H        5.25072555       2.93109178       4.20060391
H        4.90317336       4.33593315       3.24458164
N        2.50442893       3.55214839       2.61206144
H        2.76469375       4.33419322       2.00021550
H        1.58001297       3.14925173       2.48597637
Pb       0.09149757       6.50235638       6.35923285
I        3.33882750       6.44610756       6.11292564
I        0.33354528       9.77487040       6.59256840
I        0.17734860       6.60134584       9.70562043
C        3.02049378       9.84200165       9.80360541
H        2.21867486      10.52278249       9.49977260
N        3.30359908       8.81905849       9.02528970
H        2.76885980       8.64132143       8.17892686
H        4.06016881       8.16924317       9.25031140
N        3.66083020      10.09209197      10.92594270
H        4.36309691       9.45577991      11.30525246
H        3.44112306      10.91180245      11.49406232
Pb       0.29123619       6.48205413      13.03586063
I        3.47208825       6.70585183      13.03909606
I        0.04567755       9.78010946      13.18388057
I       13.61432511      19.40527346       9.75971470
C        3.41813106       9.81570052      15.91398775
H        3.83846654      10.21233106      14.98575109
N        3.74843103       8.59604108      16.28171551
H        4.31945253       8.00609082      15.68240436
H       16.63844963      21.36998711      10.66162331
N        2.62597388      10.59180233      16.62908080
H        2.05678066      10.21245380      17.39339622
H        2.36750346      11.51672496      16.29661606
Pb       0.21669196      13.01212700       6.46520413
I        3.42809868      13.16526115       6.58294469
I        0.42184907      16.28267219       6.94862596
I       -0.02056872      12.86703134       9.75172065
Pb       0.06025600      12.97876205      12.99841065
I        3.34069286      13.07742877      13.09915208
I        0.31951968      16.30959299      12.55947300
I        0.06822413      13.43576376      16.20996041
C        3.16657258      16.08736690      16.34920182
H        2.29115676      15.56604164      16.74916420
N        3.10461540      16.56254451      15.12221015
H        2.27631775      16.43067504      14.54040109
H        3.92617504      16.94849104      14.65512609
N        4.22584408      16.21341465      17.12163721
H        4.99958638      16.83284484      16.86807711
H        4.25315263      15.78485935      18.04301440
Pb       0.12536485      13.03738774      19.40048667
I        3.40098853      13.24492123      19.61725594
I       13.12719100       9.87127930       6.67297097
I        0.09363134      12.74244449      22.67295601
C        3.52683864      16.35143597      22.37619399
H        3.39375031      16.60309344      21.32064465
N        2.71738370      15.46456483      22.91730532
H        1.98944805      15.01690584      22.36696006
H        2.85907014      15.11556826      23.86778310
N        4.48506744      16.95239809      23.04964690
H       -8.48938943      10.12650041      11.02878462
H        5.12276365      17.60658553      22.59999541
Pb       6.56697421       6.71590282       0.03272360
I       -3.15914788      13.25698999      13.19255621
I        6.24361541       9.85842135       0.38077434
I        6.54522699       6.60885796       3.31653876
C       10.13205507       9.93849213       3.42495995
H       11.17194222       9.61692725       3.53147288
N        9.18599940       9.15681223       3.90203005
H        9.40724829       8.30402936       4.41384555
H        8.20268446       9.38949076       3.79439821
N        9.88090813      11.07263965       2.80253509
H        8.94150319      11.48115929       2.79860398
H       10.64285921      11.66902917       2.48460010
Pb       6.54370094       6.50251038       6.58972038
I        9.82498313       6.37482696       6.42567262
I        6.81420888       9.76671555       6.93037106
I        6.35428449       6.51716737       9.80002869
C       10.11729678       9.83696632       9.89591799
H       11.04075668       9.88905449      10.47892421
N        9.39835207      10.93106146       9.76342953
H        9.67818612      11.79828348      10.21258970
H        8.54346979      10.94253418       9.20662587
N        9.77349978       8.67956734       9.36848855
H        8.94714321       8.59453371       8.77587910
H       10.35956163       7.85872813       9.48934999
Pb       6.74700840       6.56200376      13.04460823
I        9.98095764       6.77012226      12.91106212
I        6.66460809       9.81278406      13.04323636
I       20.19784095      19.75071624       9.78592363
C        9.91440473       9.50374378      16.16951659
H       -2.69932475       1.87954544       3.32811823
N        9.29427028      10.08015473      17.17587673
H       -3.87613101       2.94991904       5.06246704
H        8.74272565      10.93349167      17.04739194
N        9.97963719      10.02793829      14.96304281
H        9.55196481      10.92544316      14.73872991
H       10.44563553       9.53612764      14.20460104
Pb       6.76157159      13.21360038       0.04070275
I        9.98332344      13.43975992      -0.17168482
I        6.63195191      16.36863552       0.23860167
I        6.66154302      12.94255099       3.30233546
C       10.01361812      16.54068372       3.35980376
H        9.34728247      17.38956383       3.53630426
N        9.53280685      15.31917723       3.49164101
H        8.56627719      15.14253569       3.74836132
H       10.15401254      14.51234640       3.44735132
N       11.26202217      16.76963468       3.00729400
H       11.88256215      15.99704145       2.76510493
H       11.65787814      17.71052275       2.97347935
Pb       6.69389338      13.03236599       6.62403028
I        9.93540648      13.19353217       6.54178475
I        6.59385887      16.30656678       6.58960579
I        6.48252625      13.37338183       9.81956507
C       10.00459340      15.98704669       9.83592316
H       10.15212027      15.03610536      10.35513991
N       10.99063272      16.46145232       9.10646387
H       11.85029515      15.93033302       8.99474447
H       10.88050502      17.30721449       8.54010548
N        8.84993110      16.60266891       9.98424747
H        8.66757748      17.52202582       9.58042017
H        8.10977823      16.20165518      10.55509829
Pb       6.61359425      13.03493196      13.08688988
I        9.88452787      13.21651392      12.86580046
I        6.36336505      16.28285590      13.00217510
I        6.90234904      12.95401583      16.32199405
C        9.97106216      16.78918105      16.31867573
H        9.78940160      17.83792462      16.06836756
N       10.09392272      15.93357411      15.32519216
H       10.02648894      16.25746880      14.36561525
H       10.39925906      14.97258871      15.47746194
N       10.04173782      16.44976560      17.58770180
H       10.10905643      15.47532163      17.89610522
H        9.97308884      17.16889990      18.30660044
Pb       6.68117113      13.11877619      19.60342732
I       -3.16129505       6.48444837       6.39286715
I        6.74147689      16.38772336      19.96990187
I       -6.15069412       6.37280001       9.82514701
C       -2.67399076       9.65004633      10.00280557
H       -1.64288908       9.96146706       9.81213651
N       -3.48234336      10.49940362      10.60808581
H       -3.13017598      11.38154960      10.97409865
H       -4.38560442      10.19340053      10.98171646
N       -3.05724963       8.45938648       9.59642729
H       -4.02237344       8.12907255       9.68551778
H       -2.38885499       7.81955628       9.17265605
Pb       6.77377819      19.48191780      13.07468346
I       10.04149273      19.09611245      13.09327762
I       19.85658003      16.39489911       0.31426605
I        6.53335640      19.15771862      16.31438269
C       10.01300484      22.93347081      16.12184027
H        9.84565431      23.65284155      15.31404085
N       11.07500115      23.08942223      16.88572067
H       11.72580110      23.86139293      16.72881397
H       11.29463666      22.43201245      17.63246965
N        9.14398733      21.95966790      16.28478103
H        9.25271639      21.27336978      17.03726741
H        8.33757082      21.87649619      15.66888083
Pb       6.71614681      19.59265841      19.54661036
I       10.04628263      19.80761347      19.24714398
I       19.86956522      16.51453518       6.68877085
I       -6.35606964      13.26963865       9.82504776
C        9.63056474       9.95475283      -3.34192151
H        8.62689180      10.33812252      -3.13943093
N       -3.09234161      15.02586293       9.86538956
H       -3.85213837      14.39970186      10.13034991
H       -2.15769493      14.61864736       9.77369769
N       -2.40777370      17.15875589       9.26727567
H       -1.50712730      16.83638059       8.90401671
H       10.30892607      11.77651131      -3.93211863
Pb      13.23919409      13.20430214      -0.18898306
I        3.53221466      19.50740250      12.79321353
I        0.19222046       3.27590932       6.36938434
I       12.95029105      13.20711971       3.12419800
C       16.57280010      16.65727500       3.03194919
H       16.89232161      17.25852141       2.17607745
N       17.36491561      16.58872131       4.08097031
H       18.21767023      17.13998986       4.12853464
H       17.15942000      15.97585802       4.87029616
N       15.42211800      16.02014271       2.95399590
H       14.99918779      15.58361170       3.77366682
H       14.84908792      16.08557709       2.11060049
Pb      13.13131821      13.12325067       6.44295555
I       16.47775676      13.39277687       6.51366691
I       13.59512789      16.39400863       6.34489533
I       13.01575106      13.18987110       9.66245407
C       16.65924888      16.45024212       9.42648207
H       17.03579356      16.14705080       8.44569637
N       15.56516296      15.87963339       9.88195876
H       15.06709015      15.18073163       9.33512021
H       15.12622928      16.16547336      10.76433474
N       17.33636270      17.35784583      10.10000727
H       17.02490111      17.69010271      11.01233150
H       18.18721952      17.77505638       9.72732701
Pb      13.20541425      13.15988975      12.96008451
I        3.31603633       6.20220954       0.13241930
I       13.64010716      16.38688846      13.01488840
I       -0.24051513       6.59349009       3.15775535
C        3.14674486       9.89165573       3.61846882
H        2.48831810       9.76692784       4.48361392
N        3.65407554       8.81717195       3.05453560
H        3.49065580       7.89717125       3.45284852
H        4.28202766       8.88672230       2.25072905
N        3.38851253      11.11290617       3.18902340
H        3.99017530      11.29150415       2.38619104
H        2.96072834      11.91626521       3.64194156
Pb      13.24564753      19.57934886      12.99088620
I       16.56717099      19.90208587      12.98470354
I       13.20033528      22.85818795      12.57466444
I       13.36160701      19.87708902      16.26885186
C        3.52661829      16.01544489       3.12469519
H        3.81130618      14.96182359       3.17459520
N        3.76905071      16.77901930       4.17010684
H        4.29687567      16.43032099       4.96876778
H        3.47306731      17.75262588       4.21095021
N       16.06114148      23.12805017      15.04738913
H        2.69679226      10.94330528      21.40171707
H       15.88126059      22.50047414      14.26740838
Cs       3.50784813      16.29432022       9.73849698
