233
Lattice="-12.957396986651146 6.351727325886291 13.017959588757243 13.11604327292129 6.668741413988977 13.017959588757243 13.195366416056363 13.17897578392661 -6.508979794378622" Properties=species:S:1:pos:R:3 pbc="T T T"
Pb      -6.46591633       6.33964062      13.05390417
I       -3.19520348       6.32009721      12.73620671
I       -6.50148574       9.65450786      13.06220368
I        7.10519838      19.66345671       9.77747173
C       -2.91291137       9.68641698      16.28348366
H       -1.95279978      10.19761907      16.15974301
N       -3.04427713       8.45673071      15.83332803
H       -2.25388046       7.94564045      15.44784387
H       -3.92678088       7.93995565      15.92480325
N       -3.89780932      10.34826063      16.85794815
H       -4.78102065       9.89515201      17.09114850
H       -3.75494861      11.28378174      17.23330031
Pb       0.17146367      19.60989515       6.40385269
I        3.47849934      19.35158991       6.74323570
I       12.71122604       9.95724329      13.16218608
I       13.34613818      13.35906704      -3.30920038
C        3.22648329       3.37831464       3.41489780
H        3.86140833       4.20563108       3.74622081
N       -9.19990608       8.52762550      16.33215074
H        4.96454908      21.52231979      10.07128246
H        3.44494941      20.91391719       9.49446917
N        1.96531495       3.62357022       3.12632382
H        1.33338741       2.86983441       2.85170537
H        1.56308582       4.55934891       3.20270174
Pb      -0.02679609       6.46725616       6.51802649
I        3.21086481       6.43011819       6.35729836
I        0.20253307       9.76376549       6.29557656
I        0.15794141       6.28514452       9.72485318
C        3.33038015       9.64497144       9.51838135
H        3.90210877       9.77759597       8.59499957
N        3.98925350       9.55627552      10.65832329
H        5.00384885       9.57489674      10.68931178
H        3.51505173       9.27716292      11.51553899
N        2.01746354       9.59240152       9.45515305
H        1.44688621       9.54677156      10.30345555
H        1.52748855       9.66200058       8.56079143
Pb       0.04772008       6.43289913      12.86516796
I        3.32249766       6.62777470      13.13465695
I        0.19198147       9.70529470      12.78133558
I       13.15755613      19.44507937       9.72152272
C        3.04139640      10.03805882      16.50855950
H        3.05405955      11.05604977      16.11016995
N        3.50439381       9.82783397      17.72372403
H        3.81009902      10.60783923      18.30377174
H       16.69718511      22.07627266      11.64060143
N        2.57617750       9.07368521      15.73908428
H       15.68135508      21.29643653       9.56595351
H        2.18833744       9.27108131      14.81925623
Pb       0.27196458      13.09654274       6.45186474
I        3.43679541      13.24522007       6.72373563
I        0.33329374      16.31581042       6.68404994
I        0.19953433      12.84217225       9.67655332
Pb       0.07498818      13.00478647      12.95344505
I        3.36438989      13.14247809      13.12562334
I        0.31100858      16.22640145      12.52728199
I       -0.01718321      12.77182100      16.18566727
C        3.37344749      16.42804300      16.46945396
H        3.04250422      17.34892452      16.95844645
N        2.48323685      15.48949516      16.22901755
H        1.53238471      15.57042936      16.57609728
H        2.70046345      14.68025138      15.64617045
N        4.64569208      16.32179757      16.14344010
H        5.05892966      15.41898535      15.89611602
H        5.27734413      17.11358106      16.27321225
Pb       0.13615081      13.02295562      19.47558567
I        3.37653060      13.13630804      19.57193591
I       13.00512802       9.87849034       6.19328284
I        0.09092725      13.32935722      22.72600115
C        3.40790656      16.32196582      22.61497082
H        3.04993249      15.90094836      21.67042168
N       15.50090536      10.57479845      10.38977728
H       14.53099728      10.68942197      10.10751055
H       15.82054621      11.18009157      11.15709328
N        4.68098578      16.18248008      22.92087024
H       -8.06571408       9.74923942      10.82890584
H        5.33048192      15.75491806      22.26466110
Pb       6.52630785       6.54011422      -0.02371542
I       -3.17074089      12.92390531      12.86497049
I        6.78013135       9.85768475      -0.05544277
I        6.30712911       6.54365761       3.24182063
C        9.85748913       9.96533517       3.51244913
H       10.24060334       9.73304664       4.50990344
N        8.61956431       9.62847058       3.21647362
H        8.00932095       9.21487265       3.91745764
H        8.23836455       9.74984268       2.27371738
N       10.67199112      10.54347424       2.65092025
H       10.31315674      10.99387355       1.80189986
H       11.59793099      10.85043034       2.94724020
Pb       6.34368063       6.56030507       6.49163822
I        9.76589861       6.73783198       6.26880576
I        6.34248217       9.80983243       6.36183133
I        6.33700306       6.67759230       9.78813479
C       10.03509420       9.88929746       9.66950334
H       10.94019543      10.16213397       9.11953672
N        9.30432431       8.89102686       9.21700850
H        9.56328740       8.38780090       8.36745366
H        8.45708198       8.57503390       9.69217717
N        9.73166543      10.56896819      10.75358652
H        8.89973764      10.35134926      11.31309495
H       10.31170027      11.34387606      11.06612062
Pb       6.58941983       6.59255020      13.10083434
I        9.84280992       6.40127970      12.89391187
I        6.83291896       9.86329259      12.94902168
I       19.89049323      20.12922152       9.77528630
C       10.28920664       9.79233105      16.36165149
H       -1.74447832       3.21683092       3.22591466
N        9.57131174       9.53326315      15.28959627
H       10.02736685       9.39442088      14.39206825
H        8.57358291       9.33005069      15.34100788
N       -3.34344124       3.29864752       4.54043447
H        8.77331474       9.87222421      17.75503407
H       -2.72615592       3.44361431       5.33807483
Pb       6.66864454      13.19085429       0.05455509
I        9.90839708      13.02974206       0.06265011
I        6.76883923      16.40242364       0.05064618
I        6.48519475      13.45544156       3.24991745
C        9.88649971      16.28594489       3.49240879
H        9.29921101      16.05983948       4.38651119
N       10.83098410      15.44127688       3.13914500
H       10.98342241      14.58695409       3.66978219
H       11.40873314      15.60142322       2.30880558
N        9.61922782      17.39001997       2.82796790
H       -3.05150887       4.48574326       8.50729882
H       -4.33785385       4.82851688       9.62079544
Pb       6.67671145      13.04520418       6.44303350
I        9.95038701      13.16734742       6.10034659
I        6.64533748      16.30869485       6.85468470
I        6.56295830      12.99913408       9.73046202
C        9.83584708      16.25815953       9.74078693
H        8.92290048      15.73994597      10.04768868
N       10.01610348      16.50657551       8.45902693
H        9.28006749      16.29880303       7.78611400
H       10.88861506      16.89051866       8.10095230
N       10.70340359      16.60287966      10.66971776
H       11.47912988      17.23624250      10.46559825
H       10.57261170      16.31284392      11.63396398
Pb       6.61462825      13.17010077      12.90054589
I        9.85542724      13.63116297      13.03248137
I        6.52034128      16.35467324      12.56068580
I        6.58914486      13.11323131      16.25680853
C        9.99796052      16.13773345      16.14481994
H       10.44174001      15.17764737      15.86669080
N        8.68676061      16.22665339      16.22204592
H        8.10195699      15.40153501      16.08354572
H        8.21948376      17.12778665      16.35904101
N       10.80496945      17.14888933      16.38729525
H       10.47198940      18.00298341      16.83428627
H       11.80462105      17.06748097      16.24181673
Pb       6.62595665      13.13552429      19.52608929
I       -3.23775107       6.80952220       6.67474570
I        6.88850543      16.35205289      19.85939627
I       -6.63724660       6.22830150       9.79279236
C       -3.04763706       9.80092446       9.98716897
H       -2.57788696      10.24645095      10.86814673
N       -2.54353722      10.07566440       8.80141318
H       -1.76500239      10.72069294       8.69853657
H       -2.91986461       9.64576031       7.95747753
N       -4.08987376       9.01511581      10.15984002
H       -4.58603741       8.60412022       9.36968891
H       -4.44539360       8.81090695      11.09036227
Pb       6.77061895      19.56160663      13.02751125
I        9.96709999      19.75000309      13.26363196
I       19.51361022      16.45362931      -0.11212584
I        6.69814787      19.42292717      16.29501217
C       10.22933928      23.04063473      15.95078679
H       10.74347730      22.69275685      15.04999263
N       22.61030647      17.87250063       2.90493215
H        9.44945477       5.26884203       8.57241789
H       22.21859296      18.29578473       3.74662131
N       10.21057442      22.25032065      17.00249856
H        9.63172386      22.45326899      17.81813073
H       10.71565302      21.36785023      16.99860835
Pb       6.75767881      19.57379494      19.61654935
I       10.04147126      19.50968943      19.35542371
I       20.03756712      16.52126431       6.40383448
I       -6.28125885      13.16349409       9.78479173
C       10.01412656       9.90593084      -3.51004324
H       10.63753617      10.45836428      -4.21919254
N       -2.87989309      14.94047822       9.50911620
H       -2.27247600      14.43601761       8.86980593
H       -3.43249447      14.37705557      10.15596164
N        9.23206146      10.58288150      -2.69531946
H        8.63157478      10.12047021      -2.00561790
H        9.18811735      11.59643399      -2.71971981
Pb      13.20629566      13.05032137      -0.12200881
I        3.47054236      19.43745973      12.81280043
I       -0.29517586       3.22352313       6.63701609
I       13.51313087      12.87854983       3.20159451
C       16.80866710      16.40786324       3.01374881
H       17.70111390      16.43217285       2.38174885
N       15.83413515      15.58640377       2.68568969
H       15.91324767      14.96729351       1.88000254
H       14.98496271      15.51471181       3.24230899
N       16.76001911      17.19668087       4.06687146
H       15.94097931      17.23210480       4.67370312
H       17.51120858      17.85337010       4.26294628
Pb      13.22373403      13.06446595       6.51095864
I       16.46085251      12.93779552       6.64321375
I       13.61745572      16.37507596       6.53589465
I       12.69451376      12.95853194       9.71530489
C       16.53696885      16.29359554       9.84420055
H       17.25012279      16.07863221      10.64409619
N       16.99245630      16.49475808       8.62272375
H       17.98051615      16.42358164       8.38875842
H       16.34947586      16.68745940       7.85513088
N       15.25123472      16.34213862      10.13502479
H       14.56455021      16.56370967       9.41433571
H       14.90895543      16.23991848      11.09037036
Pb      13.05260615      13.20926099      13.02452271
I        3.23381378       6.49334725      -0.17251672
I       13.30904721      16.45965091      13.35720148
I       -0.12710387       6.63856322       3.23510062
C        3.42908823       9.63623308       3.45975058
H        3.50599358       8.87422561       4.24127896
N        4.43771315       9.78776069       2.62883020
H        5.23685944       9.16065076       2.67171979
H        4.43174501      10.50189497       1.90132002
N        2.33624609      10.36520809       3.40215900
H        2.17125988      11.03966590       2.65655766
H        1.59192716      10.22798176       4.08670435
Pb      13.17383590      19.70897077      13.00716357
I       16.50196670      19.62747989      13.06081397
I       13.17953011      22.94429447      13.02029876
I       13.24287607      19.95841080      16.23085891
C        3.32718477      16.30558862       3.08388210
H        3.69622122      15.97697823       2.10909520
N       15.14418036      23.12785500      16.26820495
H       14.50158044      22.96367403      15.49325712
H       14.73538449      23.25478062      17.19728380
N        4.20501677      16.53556419       4.03931044
H        3.94411186      17.00573890       4.90660445
H        5.19100281      16.34500280       3.89625685
Cs       3.40869453      16.12050766       9.78820253
