233
Lattice="-12.957396986651146 6.351727325886291 13.017959588757243 13.11604327292129 6.668741413988977 13.017959588757243 13.195366416056363 13.17897578392661 -6.508979794378622" Properties=species:S:1:pos:R:3 pbc="T T T"
Pb      -6.46853434       6.30640934      12.98159534
I       -3.13935843       6.91116395      13.21646305
I       -6.78541756       9.55827796      13.06678333
I        6.96234684      19.13903945       9.71146483
C       -3.13239841       9.97554082      16.45480530
H       -3.07815376      10.79752172      17.17467000
N       -4.31017681       9.64262440      15.96664735
H       -5.13669153      10.18944342      16.19831515
H       -4.39831665       8.93695230      15.23506454
N       -2.01923013       9.35227605      16.12756434
H       -2.02515661       8.57393942      15.46724836
H       -1.12856664       9.62431534      16.52632642
Pb       0.30524340      19.58598173       6.59030327
I        3.54768218      19.32276972       6.79136725
I       13.26735810      10.00796596      13.12632342
I       12.96447959      12.83852118      -3.24670316
C        3.08254654       3.34077661       3.48195031
H        2.21167082       3.02620699       4.06532763
N       -8.94042888       8.80171261      16.23580960
H        4.20087787      21.04257978      10.11541370
H       -8.21957862       8.98679478      15.53592798
N        3.14569013       4.59378060       3.08042219
H        4.01929012       4.99798741       2.73814352
H        2.37457627       5.23976686       3.25227898
Pb       0.08760415       6.59077236       6.46429705
I        3.34658288       6.68736151       6.59174881
I       -0.26587275       9.84389045       6.56354670
I        0.11264740       6.64615952       9.73238094
C        3.48216396       9.80765693       9.99775830
H        3.13094456       9.58359081      11.00850406
N        4.68144499       9.40330449       9.63992352
H        5.28921615       8.91939316      10.29684031
H        5.05329910       9.54741259       8.69368009
N        2.66959930      10.45876447       9.18811939
H        2.98369475      10.80175074       8.27880144
H        1.77451419      10.81001637       9.51630651
Pb       0.15769693       6.59497262      12.91698935
I        3.38256139       6.24340555      12.84558822
I        0.48258362       9.80386350      12.75591655
I       13.78743510      20.00143321       9.70475326
C        3.76636847      10.01166002      16.18664028
H        4.46495023      10.85114622      16.11859196
N        3.02605009       9.90118198      17.26964852
H        3.09098247      10.59318938      18.01298130
H        2.38480553       9.11938916      17.40402396
N        3.70522340       9.16504348      15.18026996
H        3.05259460       8.38043904      15.17934919
H        4.31334643       9.27333197      14.37189152
Pb       0.08612309      13.11063377       6.46746128
I        3.39532462      12.86879749       6.35924619
I        0.46740807      16.31516255       6.53157632
I        0.29668316      13.36864036       9.73978578
Pb       0.13177100      13.02680014      12.97632209
I        3.36547205      13.04847160      13.18146464
I        0.23919196      16.30195299      13.00750831
I       -0.30214543      13.07318228      16.25852058
C        3.37264988      16.53100676      16.08023207
H        3.40780207      17.32421947      15.32734394
N        4.39105071      16.40478600      16.90403744
H        5.18118416      17.04521613      16.85202755
H        4.38928597      15.69863397      17.64181197
N        2.31077533      15.75399894      16.11788872
H        2.24732458      14.97199864      16.77030317
H        1.56115591      15.86728322      15.43654135
Pb       0.13712036      13.04567887      19.49302925
I        3.44674847      13.29714661      18.99858983
I       13.19258907       9.91885101       6.68653003
I        0.31315906      13.09802322      22.78894922
C        3.50527183      16.08167801      23.04912102
H        3.29828867      15.25071484      23.72937839
N       15.60261209      10.72486954       9.97595852
H       14.77432833      10.73328113      10.56544456
H       15.71067687      11.48426116       9.30098893
N        4.60301066      16.03415078      22.32114865
H        4.90500235      16.82751634      21.75688132
H       -7.88661575       8.55984942       9.37201609
Pb       6.55764292       6.43692405      -0.08728148
I       -3.13703086      12.65771415      12.93370442
I        6.80356254       9.74141480      -0.20637321
I        6.49912603       6.39103070       3.23326817
C        9.70993464      10.07470648       3.20267307
H        9.00411546      10.91031709       3.18501226
N       10.62112177      10.04708150       4.15120546
H       10.65092829      10.76550160       4.87183287
H       11.31771516       9.30305096       4.19825084
N        9.60478400       9.15126278       2.27048115
H       10.23336741       8.34756667       2.23628621
H        8.87263147       9.20515320       1.56271127
Pb       6.60331721       6.48292004       6.57526611
I        9.88735001       6.50289711       6.52489535
I        6.61660664       9.74122828       6.56134356
I        6.83286736       6.31310624       9.79226296
C       10.00291858       9.89685059       9.47410938
H       10.74479082      10.15123072       8.71132931
N        9.02946592      10.75018913       9.71322034
H        8.97420427      11.62503455       9.19924705
H        8.34634051      10.58620969      10.45480581
N       10.12614566       8.74771047      10.10226135
H        9.46266266       8.43901038      10.81331551
H       10.92052005       8.13315447       9.92238274
Pb       6.72656659       6.45937760      13.02689455
I        9.91662781       6.68185776      13.08472848
I        6.72541765       9.76813624      12.74194170
I       19.97697958      19.80712446       9.83108266
C       10.31725266       9.67111998      16.27850659
H       11.17298980       9.00087211      16.14508765
N       10.19616289      10.70106169      15.46800157
H       10.86895502      10.85550206      14.72088858
H        9.41696248      11.35932241      15.56121955
N        9.46263637       9.40140624      17.24213783
H        8.63738372       9.97858245      17.40376549
H        9.67533555      15.11272374      -1.66248761
Pb       6.67791733      13.06474697      -0.00417168
I        9.98094033      13.22808775       0.32225998
I        6.63212257      16.30092646       0.14094209
I        6.69682277      12.88457254       3.34660696
C        9.80190308      16.45864555       3.25059375
H        8.89716568      16.50808548       2.63696887
N       10.87689324      17.09542254       2.83645510
H       -2.34433004       4.48784659       8.50062308
H       11.72913982      17.12395417       3.39563686
N        9.77277782      15.75569419       4.36525099
H       10.60704678      15.64313088       4.94036782
H        8.92023893      15.30750340       4.68719383
Pb       6.65842882      12.98434637       6.58905174
I        9.92571278      12.94327831       6.67588235
I        6.56056226      16.22526193       6.42042978
I        6.20596920      13.38085053       9.79405618
C       10.28114700      16.37822587       9.86141197
H       11.05398576      15.63958118      10.08963494
N        9.02103820      16.02683618      10.00055281
H        8.76793444      15.11112074      10.36273667
H        8.26885113      16.70699754       9.86172703
N       10.65774417      17.56594606       9.43009822
H        9.97377146      18.27533277       9.16670963
H       11.63614602      17.83779603       9.40972097
Pb       6.57759675      13.07618887      13.01385071
I        9.84932957      13.25024260      12.66401542
I        6.47682701      16.25891795      13.21632032
I        7.08895173      12.66637782      16.25380541
C        9.58856054      16.27931457      16.06892552
H        8.74849196      15.61501469      16.29287341
N       10.01476123      17.09249513      17.01149511
H        9.55916462      17.10938865      17.92026451
H       10.80444603      17.72594509      16.86160749
N       10.12206165      16.22539972      14.86608748
H       10.87862777      16.84506346      14.57762496
H        9.80019569      15.54445284      14.17796842
Pb       6.73689534      12.98435936      19.47237462
I       -3.17181603       6.33923735       6.60826699
I        7.14278073      16.31254305      19.39401762
I       -6.70106674       6.21605786       9.73118441
C       -3.07848168       9.76829757      10.30833686
H       -3.21455248       9.88282309      11.38676131
N       -1.85481698       9.73740392       9.83448212
H       -1.06312698       9.75884576      10.47788866
H       -1.63977583       9.66474011       8.83395873
N       -4.15571561       9.66980729       9.55671743
H       -4.11144803       9.53838946       8.54668485
H       -5.07603432       9.80380276       9.96033103
Pb       6.76623996      19.45717977      12.96233243
I       10.00833048      19.57905480      12.90612695
I       19.69914436      16.39672451       0.00823092
I        6.53272423      19.49319012      16.25520975
C       10.04622580      23.14918033      16.00975645
H       10.01817506      23.89679228      15.21130245
N        9.10938007      22.22633709      16.03529207
H        8.37372693      22.21210147      15.32982348
H        9.08152388      21.51651017      16.76791378
N       11.01802925      23.22500530      16.89562950
H       11.08591045      22.56256194      17.66792743
H       11.72325810      23.95606844      16.84097260
Pb       6.77396760      19.57937203      19.57091690
I       10.01802442      20.10549151      19.30178393
I       19.95699095      16.44945688       6.67467959
I       -6.38548250      12.68968889       9.73208589
C        9.51511243       9.83079602      -3.25574599
H        8.47631867       9.50338802      -3.34586729
N       -2.77186874      16.43236037       8.65748896
H        9.89555472      22.98830899      20.77064336
H       -1.83310958      16.83013252       8.67025515
N       10.03066958       9.94876142      -2.05061473
H       11.00852353      10.19225024      -1.88992762
H        9.44667109       9.78145798      -1.23473355
Pb      13.21017976      13.25906892       0.04565924
I        3.50335708      19.40626747      12.53193384
I        0.14517488       3.31178560       6.28884966
I       13.44222674      13.13621810       3.25033980
C       16.78249586      16.38373574       3.01069569
H       17.53011919      16.22797360       2.22656465
N       16.68483524      15.48755699       3.97093400
H       17.29665931      14.67238706       3.97855599
H       15.96019280      15.55100152       4.68535933
N       16.02986477      17.46042548       2.94873292
H       15.35427712      17.68937729       3.67751919
H        2.93212806       4.95317950       8.69505331
Pb      13.27152015      13.10772152       6.48535682
I       16.47981985      12.97007087       6.89465483
I       13.30920566      16.44892745       6.08386182
I       12.93091490      13.19068126       9.73998988
C       16.38909952      16.51688681       9.97151531
H       16.62824111      16.14961831      10.97381541
N       17.29705838      17.21198265       9.31796284
H       18.18987295      17.44893799       9.74221951
H       17.08234496      17.66722197       8.42578838
N       15.20719880      16.22451948       9.46652665
H       14.94686960      16.48242272       8.51414750
H       14.52531074      15.69542889      10.00513035
Pb      13.20957842      13.30069885      12.97073104
I        3.30687925       6.88479944      -0.13754739
I       13.20299226      16.50997772      12.70859425
I        0.13597804       6.92311668       3.22694057
C        3.38244668       9.45784392       3.18989038
H        2.97642826       8.54065485       2.75381043
N        4.67175150       9.69567817       3.06101722
H        5.28559715       9.00560488       2.63554189
H        5.09541032      10.58179159       3.34632691
N        2.55609111      10.27779785       3.80580219
H        2.89600216      11.07979450       4.34399241
H        1.56649617      10.06564889       3.88198076
Pb      13.25705179      19.70669916      12.98937519
I       16.55014916      19.61021698      13.04567487
I       13.48169786      22.97569801      13.23408070
I       12.97450316      19.44701850      16.21389506
C        3.72112310      16.24691945       3.36995403
H        4.41595190      16.51043029       4.17295401
N        3.48956681      14.96885697       3.13558070
H        3.95818347      14.25450216       3.68749319
H       16.17812289      21.32271200      15.27990765
N       16.25892747      23.88578024      15.71107711
H       15.50342642      23.69225032      15.04782026
H        3.28266668      11.67568202      22.42022211
Cs       3.34144571      16.27460011       9.80357112
