233
Lattice="-12.957396986651146 6.351727325886291 13.017959588757243 13.11604327292129 6.668741413988977 13.017959588757243 13.195366416056363 13.17897578392661 -6.508979794378622" Properties=species:S:1:pos:R:3 pbc="T T T"
Pb      -6.43970312       6.40815776      13.02303695
I       -3.15582208       6.15369077      12.98614612
I       -6.06292019       9.71965725      13.01583391
I        6.77721031      19.61010988       9.74330722
C       -3.07683167       9.49060225      16.14667187
H       -2.67300906       8.54583444      16.52213757
N       -4.21127299       9.93366475      16.64950844
H       -4.69815128       9.43827232      17.39494679
H       -4.62078481      10.82691349      16.36325750
N       -2.40419641      10.13029946      15.21399340
H       -2.75783824      10.99181487      14.78539639
H       -1.52707267       9.76928849      14.83854680
Pb       0.30856994      19.61525136       6.46683703
I        3.52125699      19.58301645       6.59180723
I       13.04646515       9.98530405      12.68382960
I       13.50795113      13.28517715      -3.28243383
C        3.40438484       3.03776113       3.53904620
H        3.44452409       2.15054643       4.17854539
N        2.31395531       3.77368275       3.56146645
H        1.54482417       3.55354742       4.19371076
H        2.22783435       4.62345544       3.00363061
N        4.44728966       3.31445311       2.78527755
H        4.46399148       4.13770348       2.18258844
H       -7.70279771       9.04741648      15.78515646
Pb      -0.07947965       6.46136533       6.51439098
I        3.24741437       6.31532553       6.73864022
I        0.09645830       9.74558168       6.64124174
I       -0.06383588       6.29363771       9.78880094
C        3.36336771       9.70105381       9.31036483
H        3.08627701       9.85437498       8.26359388
N        3.32161365       8.47720165       9.79198326
H        3.07026723       7.70045678       9.18225323
H        3.44242854       8.26842342      10.78667265
N        3.71500416      10.75188023      10.02224430
H        4.12171850      10.65061482      10.95182923
H        3.73917032      11.67529357       9.59674152
Pb       0.14370186       6.52713437      13.08127947
I        3.37393543       6.47754360      12.90922084
I        0.48562862       9.77024150      12.96242224
I       12.94676234      19.73885791       9.78860322
C        3.35346709      10.14277565      16.21631691
H        2.91414067      11.05451890      15.79972702
N        2.74322760       9.56621208      17.22998095
H        1.86576133       9.92771993      17.60271781
H       16.30326753      21.89874798      11.17017661
N        4.46837446       9.67996591      15.69086296
H        4.90832438       8.81073045      16.01696390
H        4.90505390      10.12687409      14.88680229
Pb       0.15111215      13.07858938       6.64164319
I        3.37537458      13.17506674       7.08089600
I        0.26969462      16.31730473       6.82433803
I       -0.17196818      12.88130775       9.83082898
Pb       0.26370245      13.07963144      12.97738713
I        3.43756699      13.56883642      12.62435709
I        0.10981481      16.29354603      12.61286023
I        0.45746138      13.11817544      16.29427480
C        3.47557160      15.83447870      16.26329671
H        3.25391641      14.77093423      16.13909942
N        3.83626964      16.52360992      15.20006767
H        3.93038264      16.06647833      14.29691668
H        4.13345696      17.49648742      15.26632914
N        3.35740031      16.35869071      17.46267696
H        3.49076586      17.35563385      17.64921773
H        3.10238838      15.77037818      18.25494500
Pb       0.02126583      13.11029152      19.52172828
I        3.31437836      13.45086669      19.79514059
I       12.87646360       9.95020491       6.61021243
I        0.18405171      12.66270485      22.78243901
C        3.39674406      16.76047063      23.07631278
H       16.15943385      11.33968052      10.59897953
N        4.54182674      16.14500638      23.27616341
H       -7.87989598       9.84190488      10.90934657
H       -8.35567224       8.57106130       9.83555456
N        2.47206040      16.30977088      22.25546906
H        2.63143513      15.49709652      21.65528712
H       14.56178521      10.47055745       9.10611007
Pb       6.61690468       6.64295983       0.04992718
I       -3.09397626      13.19503725      13.22299035
I        6.57278472       9.85617161      -0.28499248
I        6.61763062       6.66513507       3.30228020
C        9.95436001      10.36872120       3.10745513
H        9.81381051      11.34282390       2.62922438
N       11.12902400       9.78438651       2.99089740
H       11.88773493      10.23655975       2.48804459
H       11.31937471       8.86006224       3.37734934
N        8.93891796       9.83517865       3.75358105
H        9.03828295       8.96710587       4.28577432
H        8.05795870      10.33762239       3.83028137
Pb       6.52438020       6.59477800       6.51109757
I        9.77371507       6.91276153       6.14608470
I        6.36881425       9.82806474       6.70255201
I        6.95938315       6.09715728       9.79231808
C        9.82003110       9.84752332      10.13677994
H       10.10698630       9.38599956      11.08658969
N       10.56529546      10.82636715       9.66970043
H       11.38839270      11.14194740      10.17769559
H       10.34466482      11.30566692       8.79232685
N        8.74890243       9.39687262       9.51784254
H        8.40894496       9.79789189       8.64141126
H        8.20287093       8.62553837       9.89798257
Pb       6.61044443       6.52451459      13.02264784
I        9.87758538       6.82324171      13.33061642
I        6.47584352       9.83536515      12.58467838
I       19.68117417      19.89149867       9.75440557
C        9.69926168      10.10030378      16.46136738
H       -3.22821169       4.11861615       4.27403951
N       10.60300952       9.18549208      16.18650789
H       -1.66490135       2.43638589       3.72319721
H       10.47651655       8.52205140      15.41573468
N        8.57325815      10.23196948      15.79105832
H        8.35136427       9.63600999      14.99468533
H        7.91805725      10.98783979      16.00459188
Pb       6.64267603      13.12415262      -0.03447392
I        9.91268637      13.14941458       0.05781301
I        6.40736145      16.38346423       0.20873933
I        6.44981023      12.81209760       3.25500824
C       10.16001656      16.26801189       2.99626429
H        9.92566306      15.73900377       2.06794667
N       11.14240553      15.80836931       3.74569801
H       11.66588890      14.97166360       3.48014668
H       11.43751400      16.28779544       4.59681627
N        9.44912039      17.32757001       3.32196301
H        9.63882989      17.86073705       4.17623008
H        8.70649557      17.67382771       2.72085035
Pb       6.60463618      13.08110409       6.53635369
I        9.85612842      12.96332256       6.59467354
I        6.49827727      16.33996505       6.44674908
I        6.80022373      13.43748120       9.71251362
C       10.03273069      16.03519505       9.82292680
H        9.71867392      15.08498922      10.26526640
N       10.53534256      16.95614785      10.62002538
H       10.63744393      16.78618036      11.61555760
H       10.98131727      17.80152198      10.25374783
N        9.87712335      16.20746509       8.52700689
H       10.07853547      17.10046226       8.06733352
H        9.53181086      15.44916633       7.94095184
Pb       6.70745650      13.15742142      12.86616976
I        9.93753916      13.26949640      12.95955886
I        6.87685725      16.34895341      12.85557002
I        6.30439824      13.10128268      16.20404077
C        9.90195102      16.51543335      15.89462715
H       10.22647530      16.33919168      14.86548835
N        8.68727261      16.14760537      16.24065662
H        8.04799436      15.76519123      15.54800200
H        8.33442759      16.24900358      17.19927044
N       10.76052219      17.06875847      16.72717781
H       10.48848656      17.35567719      17.66706722
H       11.67500208      17.37352663      16.40413545
Pb       6.56078921      13.10302323      19.45775187
I       -3.31108509       6.24063563       6.42455687
I        7.05494953      16.34104706      19.54851830
I       -6.53097151       6.54678644       9.71358928
C       -2.63504850       9.61201786       9.90767576
H       -1.54315822       9.65881073       9.90680671
N       -3.30218614      10.69338624      10.25323288
H       -2.80530599      11.54040022      10.51725186
H       -4.31925898      10.71101153      10.31658358
N       -3.21663930       8.48329211       9.55907876
H       -4.23026742       8.37652282       9.52501883
H       -2.65751458       7.67452004       9.29931119
Pb       6.79288022      19.58531786      13.05840310
I        9.98673547      19.69028114      13.33258038
I       19.77548057      16.47955202       0.01855230
I        6.36092602      19.56942065      16.27323002
C       10.28493991      22.59224463      16.13928104
H       11.16331268      21.93853392      16.16045792
N        9.44462441      22.53493843      17.15048929
H        9.56931522      21.85161518      17.89750201
H       21.57547446      16.78076377       4.16859087
N       10.12873064      23.39636954      15.11145910
H        9.31670366      24.01038959      15.03621055
H       10.80478125      23.39656050      14.34563565
Pb       6.70411821      19.51091762      19.54049586
I        9.98855050      19.65717959      19.51637587
I       19.83014430      16.47595582       6.73294622
I       -6.51009248      12.70992463       9.79107035
C        9.78304354       9.94801314      -3.70130516
H        9.65295591       9.96291755      -4.78569538
N        9.34400468       8.90125913      -3.03265966
H       -4.10729515      14.49793051       9.51680468
H        9.44997932       8.82082790      -2.02227440
N       10.36808687      10.97863012      -3.12749451
H       10.54689225      11.01325254      -2.12456671
H       10.69794923      11.76230829      -3.68504347
Pb      13.23517255      13.14421302      -0.05588294
I        3.50426431      19.42693355      12.82082384
I       -0.16605235       3.20412479       6.37929036
I       13.34578031      12.91099738       3.23690242
C       16.35494783      15.97220598       3.30809717
H       16.69802970      14.99660436       3.66426842
N       15.09971770      16.30997309       3.51858627
H       14.46933700      15.66543810       3.98614430
H       14.74127242      17.24778346       3.31728693
N       17.22045315      16.75537463       2.69859286
H        3.72597154       4.40730170       8.68853141
H       18.17566546      16.44700540       2.54225399
Pb      13.19838840      13.11881349       6.59744102
I       16.40944580      13.08813337       6.45537376
I       13.33964840      16.43390372       6.85417038
I       13.47171095      13.29099783       9.79468899
C       16.60277311      16.63959963       9.84589331
H       17.52109212      16.78345690      10.42371921
N       16.69468669      16.24234143       8.59524648
H       17.60186955      16.15333370       8.13218930
H       15.85853434      16.10719702       8.02139861
N       15.44735942      16.84845958      10.44768479
H       14.57261760      16.76990088       9.93361773
H       15.40136513      17.19706213      11.40070342
Pb      13.14767786      13.20286271      13.10526377
I        3.32644987       6.49915455       0.67179528
I       13.13182763      16.49321582      13.44325334
I       -0.25792598       6.38704336       3.27972370
C        3.27448877       9.98504926       3.50135205
H        3.33868626      10.83848145       4.18244360
N        4.14206190       9.90519381       2.51467082
H        4.86247236      10.61592186       2.39836700
H        4.13296259       9.12383242       1.85808376
N        2.33510249       9.08609020       3.71293636
H        2.19741126       8.29725713       3.08094718
H        1.67205971       9.19634215       4.48238164
Pb      13.19707308      19.74031759      13.14617546
I       16.48413285      19.73683938      12.82921427
I       13.00009610      23.00447226      12.86573291
I       13.49947816      19.85068873      16.35686353
C        3.73520961      16.14448295       3.29064412
H        4.64018321      15.56948378       3.07172146
N       16.28772628      23.48872400      15.32853999
H       16.73475960      23.52791699      14.41725376
H        2.28929866      10.92252181      22.00535887
N        3.25463377      16.11563606       4.51628913
H        2.37159317      16.56079696       4.76681194
H        3.73675382      15.61477465       5.25855826
Cs       3.53287123      16.56322174       9.68724809
