233
Lattice="-12.957396986651146 6.351727325886291 13.017959588757243 13.11604327292129 6.668741413988977 13.017959588757243 13.195366416056363 13.17897578392661 -6.508979794378622" Properties=species:S:1:pos:R:3 pbc="T T T"
Pb      -6.39623640       6.33495168      13.09844992
I       -3.14408975       6.59099766      12.97699896
I       -6.60126719       9.57161978      13.09460624
I        7.02188577      19.69888188       9.78559085
C       -2.88582558       9.76761635      16.23912872
H       -1.95158995      10.29958088      16.44476647
N       -3.23286648       8.77762232      17.03440885
H       10.55051897      21.68838732      11.31050337
H        9.14156411      21.37360114      10.33613127
N       -3.61027995      10.15559860      15.21094699
H       -4.48738295       9.69700307      14.95503249
H       -3.31797560      10.93340940      14.61649425
Pb       0.30832192      19.40947662       6.54087322
I        3.55783238      19.05944058       6.93401305
I       13.13283085       9.87727449      12.89994379
I       12.93015573      13.32073947      -3.24209879
C        3.54067136       3.31534433       3.33714046
H        4.48470539       2.90214658       3.70380150
N        2.80566577       2.58221468       2.52401113
H       -9.84668521       8.01238147      15.23150180
H        1.96032936       2.95097596       2.08750974
N        3.18502985       4.51735035       3.73858530
H        2.28048961       4.93276050       3.48929369
H        3.78696056       5.06959528       4.34515307
Pb       0.15350200       6.54261138       6.63291530
I        3.44830913       6.88062231       6.65811553
I        0.19703101       9.79520403       6.70779568
I        0.16285051       6.75960857       9.82440226
C        3.14041094       9.78263618       9.63661619
H        2.32405852       9.64031851       8.92219211
N        3.89361922      10.85503740       9.51285501
H        3.74186156      11.52576091       8.76055626
H        4.68711821      11.02318277      10.13142576
N        3.31951841       8.87956608      10.57469733
H        4.07447312       8.96722071      11.25959268
H        2.71254604       8.06567314      10.63691670
Pb       0.12412169       6.50887030      13.05954361
I        3.40902069       6.03102111      12.91998429
I        0.24593768       9.75371409      13.27886064
I       13.17854538      19.51706587       9.77545244
C        3.29286541       9.77649125      16.01772535
H        2.73273667      10.12292653      15.14326046
N        4.36268647      10.45012988      16.38348708
H        4.65241693      11.28486227      15.88112656
H        4.92819216      10.17833739      17.19407512
N        2.86104615       8.70362478      16.64633806
H       16.51258925      21.51702804      10.97781552
H       15.21963180      21.38515972       9.83139491
Pb       0.08844387      13.02085336       6.50974021
I        3.35425944      13.30323175       6.61704096
I        0.06421455      16.26010745       6.86233532
I        0.17390716      13.08115409       9.80071726
Pb       0.18749724      12.96297842      13.03733545
I        3.42970222      13.03285041      13.29940958
I        0.43189466      16.29385760      12.74288623
I       -0.11247133      13.12744046      16.30520769
C        3.20606731      16.08371160      16.24733418
H        2.35440442      15.40018786      16.31339888
N        3.25979619      16.92137466      15.23338879
H        2.53474027      16.92045952      14.51706539
H        4.02825331      17.58376916      15.12796510
N        4.12150077      16.03121351      17.19159359
H        4.92020776      16.66443910      17.19585607
H        4.05790149      15.33745961      17.93673047
Pb       0.23792638      12.98699067      19.51773580
I        3.50498095      13.02922055      19.39754447
I       13.23970765       9.82581131       6.34512608
I        0.66617902      12.80270422      22.81719592
C        3.46641475      16.36717761      23.10754678
H       15.99891192       9.97123467      11.09615916
N        4.64901823      15.82702731      22.89508575
H       -7.90737792       8.82067544      10.65735915
H        5.11775593      15.89492401      21.98571757
N       15.70633767      10.57664762       9.13690841
H        3.13287699      17.08997266      21.22501635
H       14.81910047      11.03351251       9.34487022
Pb       6.53405738       6.54200197       0.00452554
I       -3.07361075      12.92166321      12.82274234
I        6.58724153       9.77810402       0.04154010
I        6.44359358       6.52991043       3.32399091
C        9.84107647      10.17477621       3.33057216
H        9.18940726      11.01513166       3.07315306
N        9.56275788       9.47575003       4.41063874
H        8.77748729       9.72069763       5.01616605
H       10.17532270       8.73177809       4.74619489
N       10.85501110       9.90355855       2.53597239
H       11.48695980       9.12046637       2.72883360
H       11.05242017      10.48266831       1.72475871
Pb       6.67484480       6.55208853       6.61160869
I        9.97531259       6.70689673       6.87159712
I        6.66941221       9.88270537       6.73386766
I        6.69780548       6.36649782       9.82362534
C        9.71042887       9.90123313       9.53293420
H        8.94167011       9.48788269       8.87415317
N       10.78235944       9.17555221       9.77658159
H       10.90080305       8.26891259       9.33294701
H       11.46745446       9.45493372      10.48017990
N        9.51531099      11.09873329      10.04604569
H       10.25828954      11.60043417      10.53320149
H        8.65956165      11.62112505       9.85937681
Pb       6.66008172       6.54569987      12.99173646
I        9.94058980       6.76289433      12.87106027
I        6.36903568       9.81679104      12.72543344
I       19.83819184      19.72505580       9.81107603
C        9.52393793       9.96577147      16.21725040
H        8.72834767      10.60420829      16.61123628
N       -2.92586313       2.53217003       4.03704165
H       10.00941126      15.66302662      -1.49222212
H       11.03625016      15.10201916      -2.78250578
N        9.77477601      10.01117507      14.92298919
H       10.47209568       9.41112561      14.48439233
H        9.25106542      10.62884142      14.31037367
Pb       6.66671287      13.00513817       0.09536990
I        9.99742739      13.19265961       0.56289611
I        6.75580808      16.28156926      -0.24534459
I        6.46348580      13.19597892       3.32412274
C       10.00461683      16.49783841       3.49594533
H        9.99977442      17.38468514       4.13635912
N       11.08220446      15.74288207       3.48119787
H       11.85735675      15.92687236       4.11887158
H       11.14316878      14.90740755       2.89841403
N        8.93619397      16.24252942       2.77134092
H        8.88420051      15.42126359       2.16696422
H        8.14273381      16.88137382       2.78242511
Pb       6.73929610      13.11332740       6.51458017
I        9.90906803      13.00620249       6.31186794
I        7.05924484      16.33701397       6.91767998
I        6.47028531      13.35385208       9.82416202
C       10.21177211      16.33674733       9.90135643
H       11.05690916      16.12570923      10.56269042
N       10.45446122      16.84145013       8.71048009
H       11.40411814      17.01310630       8.38633247
H        9.69606635      17.05991386       8.06347963
N        8.99462803      16.07714378      10.33275984
H        8.18204733      16.22706740       9.73536827
H        8.83477178      15.68295469      11.25570400
Pb       6.61322488      13.11217426      13.07877309
I        9.93023614      13.40337573      12.98753154
I        6.43594726      16.33547943      13.07672181
I        7.01710883      13.19161616      16.29274972
C        9.96674371      16.13497697      16.05184515
H        9.94775196      15.41030902      15.23159170
N        9.07498540      17.10254284      16.04919661
H        8.40416557      17.19311768      15.29051882
H        9.08125726      17.82886644      16.76799840
N       10.87301525      15.98667091      16.99331678
H       10.94203410      16.64026630      17.77432217
H       11.54172893      15.21727451      16.95689231
Pb       6.77676506      13.02494053      19.51193313
I       -3.08500656       6.51538830       6.73102732
I        6.69742708      16.28621949      19.80628871
I       -6.32095118       6.08914025       9.80510009
C       -2.92116763       9.70029847      10.11031000
H       -2.76049788       9.99288185      11.15155768
N       -3.48228953       8.53550308       9.86075224
H       -3.66861152       7.88903504      10.62850387
H       -3.51589413       8.14411093       8.91393504
N       -2.57964431      10.55586312       9.16774464
H       -2.71039814      10.34845028       8.18027482
H       -2.05431556      11.39871839       9.39333722
Pb       6.66349921      19.59321419      12.97303325
I        9.99266808      19.18911068      13.10860270
I       19.62328890      16.48526580       0.05774550
I        6.24619724      19.39463191      16.25661629
C        9.73898997      22.98641251      16.32800707
H        8.86056240      23.01588154      16.97854752
N       10.77304744      23.73991840      16.64339094
H       10.72550978      24.38060835      17.43681815
H       11.55981516      23.84297468      16.00335438
N        9.72884998      22.17758646      15.28834570
H       10.51799955      22.14297756      14.63767606
H        8.89165149      21.66688488      15.02843849
Pb       6.71345800      19.54847525      19.62387662
I        9.96879415      19.25148284      19.10899821
I       20.11725340      16.45070899       6.75487118
I       -6.38647868      12.86826137       9.77757826
C       10.21468651       9.86491948      -3.08162168
H       -1.71891424      15.98923633      10.24865603
N        9.36494963       8.86600107      -3.19985527
H       -3.35238120      14.28656395      10.14254196
H        8.44238426       8.98747221      -3.61618458
N        9.90078635      11.11934558      -3.32752763
H       22.05151861      18.08993297       9.53088348
H       10.61942254      11.84273812      -3.29792808
Pb      13.29624677      13.24601421       0.05115488
I        3.49807550      19.50390395      12.42138193
I        0.20750593       3.27642600       6.72139584
I       13.59987728      13.08097198       3.23277686
C       16.57366698      16.24883667       3.08203893
H       16.54089062      15.48619557       2.29880385
N       15.51435973      17.00860844       3.25840850
H       14.70413790      16.91652530       2.64750433
H       15.47071506      17.70046109       4.00718916
N       17.66918543      16.36062297       3.80287531
H       17.77421185      17.08779749       4.51112102
H       18.44636349      15.72074045       3.65544983
Pb      13.13840013      13.06063612       6.42605439
I       16.43753200      13.26544783       6.69328823
I       13.28097179      16.39934694       6.37992379
I       12.86353887      13.00232531       9.75260013
C       16.67922402      16.46796815       9.48909553
H       17.42270146      16.35293774       8.69455266
N       15.72300232      15.57040612       9.58534973
H       15.67825640      14.79284018       8.92780610
H       15.01831644      15.62335159      10.32476454
N       16.78692299      17.50479957      10.29375068
H       16.13088842      17.65527584      11.06008370
H       17.55707863      18.16631897      10.19464609
Pb      13.23834838      13.15948219      12.98934792
I        3.33098397       6.32990126      -0.19267200
I       13.71094725      16.36914199      12.72907148
I        0.07803878       6.42918486       3.26452829
C        3.41697688      10.07256086       3.20699917
H        3.20149860      11.01207389       2.68959422
N        3.33022727      10.03883435       4.52042553
H        3.11719734      10.88030484       5.05321462
H        3.42267897       9.16466396       5.04592756
N        3.73300155       9.01596731       2.48181143
H        4.16907204       8.19414450       2.90627391
H        3.80109717       9.08099250       1.47108996
Pb      13.18221084      19.56163356      13.04879385
I       16.55361877      19.86922002      13.18221996
I       12.78121561      22.81024761      13.11871850
I       13.32133261      19.36812500      16.29705439
C        3.37058408      15.99092453       3.25638554
H        3.99479717      15.09615317       3.17225995
N       15.17797082      22.52557096      16.28872507
H       14.72646095      21.60930921      16.22944074
H       14.57881084      23.35411000      16.33600240
N        3.96425186      17.16462091       3.34387249
H       -9.78629302       4.83727733       9.93171030
H        4.97485785      17.27338309       3.32026017
Cs       3.36158273      16.17517005       9.79934447
