233
Lattice="-12.957396986651146 6.351727325886291 13.017959588757243 13.11604327292129 6.668741413988977 13.017959588757243 13.195366416056363 13.17897578392661 -6.508979794378622" Properties=species:S:1:pos:R:3 pbc="T T T"
Pb      -6.47109318       6.32781131      13.04949876
I       -3.19728448       6.50834866      12.71369258
I       -6.36475061       9.63060498      13.02709897
I        6.69110398      19.51831391       9.82023927
C       -3.56647202       9.72197410      16.17325436
H       -4.59340487      10.06891641      16.31917701
N       -2.70287752      10.55391690      15.62369823
H       -3.00237487      11.47032072      15.30310864
H       -1.79119283      10.23350479      15.29170307
N       -3.24821556       8.50953004      16.56975269
H       10.90211690      21.32134974       9.98366822
H        9.24965314      21.07678516      10.47732910
Pb       0.21087015      19.53407547       6.50519700
I        3.48854085      19.36087485       6.82408941
I       13.09813551       9.92187216      13.00504068
I       13.10644271      13.40798604      -3.27992375
C        3.23814791       3.42611013       3.23767192
H        2.88235107       4.35753775       3.68712883
N        3.81435819       2.53441526       4.01922548
H       17.12880560      15.89553974      -1.49917817
H        4.58943453      21.28154042      10.14511825
N        3.06822137       3.23946412       1.94387396
H        3.21715291       2.32239025       1.51309964
H        2.65170426       3.96132307       1.36137591
Pb       0.12258547       6.45538652       6.49832958
I        3.39533012       6.48219577       6.03104954
I        0.24244969       9.77470079       6.84737440
I        0.21248688       6.49381101       9.77428419
C        3.63318803       9.66974827       9.97377150
H        4.27127279       9.22384347      10.74251729
N        3.27273277       8.93145545       8.94576683
H        3.62645454       7.98499573       8.83909237
H        2.54241436       9.23739785       8.29520926
N        3.26139186      10.92490257      10.12453007
H        2.81178032      11.44552064       9.37137936
H        3.52736362      11.45771896      10.95077072
Pb       0.07670025       6.58961749      12.94920316
I        3.31050013       6.38046540      13.10125858
I        0.07714811       9.81004913      13.16545918
I       13.16259180      19.90612421       9.78351731
C        3.30080074       9.68075220      16.61594347
H        3.37033434       8.88035249      17.35867345
N        4.32062025       9.87916725      15.81048447
H        5.14557449       9.28414098      15.86052679
H        4.32417436      10.63426497      15.12284327
N        2.19542642      10.39814873      16.57191585
H        2.07214899      11.14370240      15.88829692
H        1.44041681      10.22386119      17.23384229
Pb       0.20227828      13.00961264       6.59896339
I        3.41032956      13.17502986       6.79721983
I        0.13505015      16.27283090       6.64561659
I        0.35819680      13.17102640       9.81172321
Pb       0.16761966      13.15802483      13.03815235
I        3.35404079      12.83623729      13.43848893
I        0.49683451      16.33043231      12.62995978
I       -0.11804360      13.51640627      16.30592141
C        3.37510601      15.93906503      16.46153843
H        3.49071091      14.99660558      17.00463560
N        2.20728622      16.54366835      16.50640794
H        1.43066306      16.13425870      17.01906855
H        2.05494240      17.47397928      16.11363823
N        4.41707538      16.41950455      15.81233210
H        4.31872237      17.20331132      15.16310095
H        5.27719703      15.88012588      15.76371143
Pb       0.13145146      13.07120610      19.61183194
I        3.44107203      13.30570810      19.61350503
I       13.12746948       9.93588162       6.81902564
I        0.18565783      13.09122774      22.80196411
C        3.45400562      16.18255613      22.62681599
H        2.97820923      15.64036655      21.80393807
N        4.57359130      15.70267646      23.12563246
H       -8.14419650       8.15304013       9.77882405
H       -8.03870089       9.49979050      10.86929457
N       15.83933437      10.93179630      10.04993246
H       16.23000073      11.47131578      10.82821655
H       14.96326357      11.27592214       9.66061151
Pb       6.61595188       6.51562164      -0.12540936
I       -3.08964689      13.00913687      12.67611834
I        6.87843939       9.84262196      -0.22540360
I        6.91370823       6.57726444       3.20002543
C        9.63531272      10.13619866       3.21024788
H        8.79964694      10.82817687       3.07126134
N       10.23642481      10.11215235       4.38121421
H        9.97079499      10.75743756       5.12429937
H       11.03106796       9.49875574       4.55996288
N        9.99469439       9.37425403       2.19942259
H       -2.20836007      15.04176109      15.32114917
H        9.46529338       9.37473595       1.33127141
Pb       6.63499906       6.53802118       6.38035030
I        9.86966637       6.60971338       6.67877575
I        6.60689351       9.79862147       6.54686315
I        6.15804854       6.43277211       9.73249313
C        9.72790469      10.02308966       9.46277793
H        9.68131832      10.72303227       8.62328505
N        8.65968138       9.30710488       9.73974027
H        7.82925416       9.37366838       9.15553202
H        8.63313653       8.67804292      10.54268306
N       10.84903718       9.94697834      10.14562477
H       10.96988364       9.28691505      10.91380272
H       11.64216031      10.54002175       9.91478940
Pb       6.58060305       6.49230694      12.97364120
I        9.82404915       6.81429340      12.66080445
I        6.57083024       9.76950303      12.89445244
I       19.64009959      19.98071538       9.75226722
C        9.94696914       9.94680264      16.33033249
H        9.20793642      10.65641586      16.71149664
N        9.53626462       8.75891896      15.92970329
H        8.56198065       8.46623533      16.00389940
H       23.38667491      21.27084934       9.01443592
N       -1.90413646       3.64093568       3.26713044
H       -1.18316971       2.98502322       2.96417971
H       -1.59612123       4.57640127       3.53225355
Pb       6.77758356      13.13447406      -0.00497553
I       10.00116340      13.16714239      -0.15948356
I        6.60440431      16.33121255      -0.14127905
I        6.99401726      13.25468416       3.31951419
C        9.91010673      16.38904578       3.11182952
H        9.46308860      15.83980250       2.27809743
N       10.28928295      17.63446856       2.91799207
H       -3.00245521       4.90534011       8.51249210
H       10.64199677      18.21129085       3.68248600
N       10.03982634      15.77407376       4.27176173
H       10.57881475      16.18675499       5.03295762
H        9.71774880      14.81957486       4.40244189
Pb       6.64139442      13.03574363       6.61947885
I        9.89213143      13.01328254       6.76304567
I        6.88187832      16.31308196       7.02862244
I        6.37943427      13.04561831       9.82550044
C       10.16129892      16.44861283      10.09414263
H       10.85865253      16.38799876      10.93566109
N       10.34969092      17.40039580       9.20293108
H       11.13094654      18.05015772       9.28757604
H        9.74693587      17.48993446       8.38657175
N        9.18541186      15.57064474      10.02172721
H        8.48094622      15.61298843       9.28091493
H        9.07809696      14.85463624      10.73729427
Pb       6.61785157      13.01532055      13.02456402
I        9.85405374      13.23261743      13.03450888
I        6.45840011      16.27629991      12.81430359
I        6.53166708      13.11021430      16.29397559
C       10.29052405      16.33857959      15.95952479
H       10.94527186      16.29329739      15.08338126
N       10.47845558      17.31249000      16.82430621
H       11.21983693      17.99843579      16.68463788
H        9.88506347      17.42516585      17.64654627
N        9.35726352      15.42167985      16.09299258
H        8.73231337      15.40617392      16.90083598
H        9.26801849      14.67152724      15.40958136
Pb       6.64396183      13.00283758      19.47767268
I       -3.12759031       6.22101524       6.24539988
I        7.18502782      16.30115668      19.32553090
I       -6.60762342       5.94931594       9.79448200
C       -3.05594254       9.69760645       9.36328279
H       -3.19129423      10.17619037       8.38984341
N       -3.81248860       8.66045090       9.65740229
H       -4.50848294       8.32727813       8.99796817
H       -3.70020785       8.14195402      10.53309027
N       -2.15398275      10.19515087      10.18197863
H       -1.96022386       9.78751481      11.09713854
H       -1.58437818      10.99609933       9.91676629
Pb       6.85360240      19.48954853      13.12109838
I       10.06610487      19.38425866      13.12027024
I       19.90083470      16.41188002      -0.26155565
I        7.22348178      19.98713088      16.32213756
C       10.35279553      23.12969380      16.34264379
H       11.11888777      23.91125663      16.36936044
N       10.31168942      22.26078973      17.33109575
H       10.96973848      22.32632194      18.10670172
H        9.59397588      21.53546372      17.37179230
N        9.52381419      23.10357137      15.32206427
H        8.79421284      22.39367386      15.24340604
H        9.58622485      23.80514834      14.58381391
Pb       6.74286045      19.54556319      19.54992743
I       10.04145071      19.49493203      19.79133158
I       20.11087887      16.47049019       6.89362746
I       -6.63689370      12.63388329       9.73356102
C        9.96658030       9.94996640      -2.84885529
H       10.38060723       9.98701985      -1.83818398
N       -3.16027020      15.12880044       9.60176351
H       -2.94525059      14.27577144      10.11256011
H       -3.52416461      15.03101651       8.65312094
N        9.68299430      11.09095907      -3.44601472
H       22.33723392      17.77765995       8.66306927
H        9.78605462      11.96487800      -2.93826571
Pb      13.24376723      13.24582686       0.00517835
I        3.57528243      19.44254258      13.44269957
I        0.38932662       3.27192287       6.54023496
I       13.01898185      13.18242026       3.23886672
C       16.40487447      16.14406641       3.19373352
H       15.93816816      15.22316710       2.83141883
N       15.98014758      16.65885130       4.32915055
H       15.20861151      16.24234735       4.84810928
H       16.32882092      17.55142802       4.68692854
N       17.36723131      16.68176364       2.47697260
H        4.66714334       4.35293427       9.28608376
H       17.69544731      16.24455722       1.61983777
Pb      13.19166138      13.15714846       6.49252667
I       16.44181160      13.13352045       6.32650331
I       13.10830699      16.43755572       6.64025784
I       12.96495471      13.20207567       9.74522996
C       16.48829164      16.39803569      10.03919790
H       16.78713543      16.02879422      11.02427023
N       16.46204193      17.69743810       9.83005034
H       16.66740355      18.34604855      10.59095976
H       16.34255577      18.09591951       8.89358871
N       16.16700804      15.51584594       9.11224162
H       15.70936465      15.79428483       8.24591441
H       16.25393037      14.52099131       9.28126755
Pb      13.13802547      13.20459942      13.02145943
I        3.31580228       6.54347997      -0.07242338
I       13.27437699      16.42605070      12.89593093
I        0.09192191       6.73481331       3.23657833
C        3.48099414      10.03698923       3.04849151
H        3.13753677      10.90602738       2.47926577
N        4.59314669       9.44383586       2.66770959
H        5.10854983       9.75366577       1.84247065
H        4.96626493       8.62084698       3.14631281
N        2.76875211       9.64312260       4.08307356
H        3.00321597       8.79565894       4.61047330
H        1.91571387      10.12821111       4.34772042
Pb      13.26845337      19.63630628      13.02807045
I       16.59378329      19.59329311      13.03289006
I       13.30923982      22.93200499      13.15518417
I       13.53178074      19.50061711      16.31881167
C        3.75306729      16.21616444       3.20115001
H        4.64747716      16.67543233       3.63235687
N       15.89125348      23.67322022      15.82046940
H        2.77343873      11.50283028      22.40642496
H       15.10679479      23.32188542      15.26428715
N        3.69517250      14.90236143       3.12294272
H       15.97420836      21.08435545      15.81996958
H        4.51321435      14.33434523       3.34699188
Cs       3.45977240      16.36083251       9.74234543
