233
Lattice="-12.957396986651146 6.351727325886291 13.017959588757243 13.11604327292129 6.668741413988977 13.017959588757243 13.195366416056363 13.17897578392661 -6.508979794378622" Properties=species:S:1:pos:R:3 pbc="T T T"
Pb      -6.51415240       6.46132620      13.18218758
I       -3.21754379       6.60766981      13.02750096
I       -6.55709849       9.68703089      13.28442801
I        6.77977632      19.50797116       9.89640492
C       -3.29939069      10.06338333      16.39770340
H       -3.78261832      11.00672763      16.66862722
N       -3.03477768       9.84000103      15.12578551
H       -3.22632836      10.55684509      14.42683295
H       -2.76435158       8.91318275      14.79400744
N       -3.01359549       9.20319413      17.35202925
H       10.80834704      21.59090618      10.66787621
H       -3.30187606       9.37903102      18.30906066
Pb       0.15489406      19.38633697       6.46777042
I        3.44560316      19.36271089       7.00627001
I       13.20637332       9.81304119      12.80007833
I       13.05867682      12.78598512      -3.23218165
C        3.32852982       3.58821092       3.42271565
H        2.99282693       4.52537263       3.87485120
N        2.57590712       3.03687158       2.49143591
H        1.72435463       3.48620429       2.16869971
H        2.84613638       2.17130895       2.01618733
N        4.45872670       3.06220709       3.84281853
H       -8.12335278       8.54482260      16.47313084
H        5.00540318       3.49114915       4.58956295
Pb       0.07334024       6.43613540       6.48464953
I        3.34095755       6.20980925       6.53279195
I        0.67463522       9.67931021       6.41624926
I       -0.10491213       6.03971452       9.76899128
C        3.51009735       9.77336032       9.44123461
H        3.79652049      10.12622800       8.44732939
N        3.04618644       8.54696525       9.56123156
H        2.99449544       7.93024942       8.74977490
H        2.89860534       8.12200319      10.47959142
N        3.63847167      10.60031277      10.46009712
H        3.25196340      10.37198817      11.37386902
H        4.07550182      11.51124839      10.35294920
Pb       0.01353594       6.38632638      13.03029737
I        3.28761945       6.49734705      12.79519261
I        0.47099824       9.66349436      12.73729796
I       12.78290241      19.83956493       9.78675085
C        3.05614297      10.00884132      16.41129464
H        2.25084213      10.75168015      16.41046833
N        3.95073823      10.06006622      17.37316774
H        3.91904117      10.79329000      18.08042169
H        4.71874060       9.38976634      17.42020609
N        3.06527578       9.10405791      15.45620602
H        3.82613826       8.42835198      15.38032967
H        2.37125637       9.12392143      14.70841679
Pb       0.15752426      12.93008588       6.48366723
I        3.39390107      13.73034051       6.51704371
I       -0.45433551      16.16153596       6.33272630
I        0.33290958      13.18194265       9.74391206
Pb       0.20806786      12.90538654      12.94556786
I        3.41782059      13.30462814      13.09831590
I        0.07388267      16.17820512      12.92526235
I        0.12628477      12.68573008      16.28199582
C        3.55118284      16.03504679      16.47114523
H        4.28633806      15.22341511      16.47918750
N        3.64309329      16.97000877      17.39243176
H        4.38509758      16.94213456      18.09278206
H        3.02387199      17.78166061      17.39143780
N        2.61551445      16.02265775      15.54668022
H        1.89289190      16.74347280      15.51043696
H        2.59893465      15.29745983      14.83003515
Pb       0.11460515      12.87372434      19.57591669
I        3.40878671      13.13856086      19.58796829
I       12.77048146       9.83927381       6.25854322
I        0.28201569      13.02656467      22.81620414
C        3.65557241      15.99495525      22.76814538
H        4.49578355      15.35130242      22.49110541
N       16.61373763      10.18515951      10.95051309
H       -8.67531072       9.73600604      11.59149693
H       15.79881876      10.67774838      11.31342527
N       15.65863969       9.84561085       8.86669997
H       14.90448508      10.51018044       9.04512445
H        2.70146534      15.70363827      20.99636271
Pb       6.56140474       6.56559365       0.12688314
I       -3.10254943      12.92750356      12.98304254
I        6.60189803       9.82143231       0.03410345
I        6.70870718       6.69205237       3.31747637
C        9.63311461       9.84989129       3.07825243
H        8.88356588       9.96948134       2.28963975
N       10.54759709       8.91425573       2.93256638
H       10.54362505       8.30103233       2.11952043
H       11.27656042       8.76006209       3.62937962
N        9.57623296      10.64771215       4.12265559
H       10.26602855      10.59898464       4.87449565
H        8.85882908      11.36619756       4.19135462
Pb       6.59879896       6.62704379       6.58494401
I        9.84727121       6.53874155       6.70680892
I        6.50306908       9.90760533       6.83912082
I        6.60823112       6.63781478       9.85419927
C        9.62301809       9.65343077       9.44404893
H        9.47837267       9.00659258       8.57373663
N       10.77359435      10.28017900       9.56637675
H       11.49375313      10.18696724       8.85358818
H       10.96653553      10.89116190      10.35979522
N        8.63842812       9.77123077      10.30679042
H        8.72432946      10.34741887      11.14535595
H        7.79048244       9.21788432      10.20148118
Pb       6.63080610       6.63219336      13.06213103
I        9.82257221       6.85461301      13.12637440
I        6.36545659       9.87885704      13.19363563
I       19.45515691      20.13293612       9.87951237
C        9.78107829       9.82418429      16.23672051
H        9.00014073       9.90132448      15.47533449
N       -3.68762508       3.08366224       4.48820081
H        8.45540624       9.77171411      17.80366671
H       -2.98415317       2.95148982       5.21363378
N       -2.07325772       3.13890412       2.83863339
H       -1.32435570       3.09816693       3.53182245
H       11.31503672       9.85225564      14.87572292
Pb       6.56849207      13.11454607       0.12131245
I        9.92870548      13.24036914       0.39922652
I        6.64329931      16.34032896       0.39861413
I        6.56367687      12.98005767       3.38914259
C        9.93187479      16.62856469       3.50575082
H       10.21105499      17.46558085       4.15310829
N       10.80321360      16.20624450       2.61395569
H       11.69368149      16.68374285       2.50094921
H       10.60183216      15.41059428       2.00040407
N        8.73635693      16.09586877       3.65425746
H        8.39633252      15.35059578       3.04801285
H        8.12083348      16.38868657       4.41228052
Pb       6.65794331      13.12697517       6.70479019
I        9.91797387      13.24105064       6.59344090
I        6.81357221      16.41083047       6.86242329
I        6.42061014      13.42971331       9.89895212
C       10.49814182      16.26068035       9.87319213
H       11.57468505      16.39121260      10.00765318
N        9.74270139      17.33752291       9.84419034
H       10.16422569      18.25818943       9.92495500
H        8.73737152      17.29591700       9.68375149
N       10.02483329      15.03621290       9.76776576
H        9.03065897      14.84223755       9.64626918
H       10.65965342      14.24216423       9.74714528
Pb       6.67778614      13.08302948      13.21615723
I        9.89268537      12.54196770      12.81166938
I        6.84810445      16.37793547      13.22205702
I        6.70331874      13.01540495      16.41225948
C        9.81544647      16.07588569      16.47296979
H       10.16951045      15.40659428      17.26319946
N        8.62456228      16.62283006      16.60959906
H        8.06370639      16.46142725      17.44775131
H        8.16902955      17.10211378      15.83272482
N       10.59736814      16.28887971      15.43557560
H       10.38830654      17.02422751      14.75461211
H       11.50499095      15.83648156      15.36458593
Pb       6.68859132      13.11883629      19.65047253
I       -3.16429914       6.74422780       6.58958109
I        6.49516886      16.34956439      19.66953470
I       -6.44738222       6.53966376       9.91304609
C       -3.03107379       9.22079541       9.73126208
H       -2.67665533       8.18901639       9.65061499
N       -3.20057144       9.91322969       8.62534153
H       -3.07395113       9.46826352       7.72108742
H       -3.59244479      10.85478134       8.63145545
N       -3.24336653       9.71824269      10.93119926
H       -3.55764523      10.67834250      11.07234698
H       -3.14605555       9.12200926      11.75033807
Pb       6.72939065      19.57144896      13.15379690
I        9.95265677      19.46960941      13.47392852
I       20.04793834      16.55179579       0.11606814
I        6.29837549      19.80972642      16.36988567
C       10.02659872      22.95677410      15.90555605
H        9.74524422      23.00209594      14.84989209
N       10.06319971      24.08437388      16.58318938
H        9.58197154       5.43146947       9.62460955
H       23.31925373      17.76967748       4.53971671
N       10.29194615      21.78033287      16.42807440
H       10.58947373      21.67572320      17.39871057
H       10.26816845      20.94294545      15.84781710
Pb       6.72543318      19.70421790      19.63974532
I       10.05108504      19.33646491      19.29409083
I       19.89950727      16.53282277       6.62859808
I       -5.89479824      12.78091791       9.83324687
C       10.16788504       9.95180254      -3.18429078
H       11.01070800      10.55940159      -3.52808662
N       -3.19242762      15.30578681       9.07772191
H       -2.73529200      15.10947616       8.19039527
H       -3.95200238      14.67860880       9.36065989
N        9.60791023      10.26700077      -2.03518432
H        8.80539050       9.75731134      -1.65999614
H        9.96658091      11.02891695      -1.46229147
Pb      13.21246961      13.01853778      -0.04521010
I        3.46629259      19.23285483      12.69334934
I        0.00393072       3.17067216       6.12452232
I       13.60023910      12.95578767       3.27745321
C       16.19154315      16.52777285       3.13535113
H       15.43584499      17.30388992       2.98220402
N       16.39089444      15.65057968       2.17363599
H       15.84138304      15.67287604       1.31975549
H       17.05814943      14.88442340       2.29274840
N       16.85501007      16.52302928       4.27161457
H       17.56938398      15.82271670       4.47319431
H       16.69213497      17.24281177       4.97533894
Pb      13.18288446      13.15269694       6.47635939
I       16.47318469      13.38910086       6.80987487
I       13.46717581      16.37784769       6.97900451
I       13.30303545      12.85990097       9.74786455
C       16.67681529      16.56989292      10.16037276
H       17.30411377      16.71237572      11.04594448
N       16.67736959      17.51128497       9.23992927
H       17.28625764      18.32317673       9.32527379
H       16.09034953      17.44141453       8.40894392
N       15.95985122      15.47105828      10.07061667
H       15.36709397      15.28159098       9.26152204
H       15.96028151      14.78507217      10.82496995
Pb      13.08136654      13.10886411      13.01257494
I        3.29367277       6.57799013       0.08647157
I       13.17128336      16.30794479      12.78625117
I       -0.11812354       6.57622852       3.23176170
C        3.66993450       9.78834152       3.15474756
H        4.42952098       9.87847870       2.37155291
N        2.87832180       8.73690163       3.13901070
H        2.94947226       8.03813054       2.39954164
H        2.14025044       8.61697745       3.83345375
N        3.59852790      10.73106566       4.07003963
H        2.88072581      10.70346093       4.79646124
H        4.23317388      11.52769517       4.04878194
Pb      13.29201189      19.55632752      13.08192471
I       16.49691214      19.53111778      13.03753274
I       13.38048337      22.82800386      13.33912083
I       13.38141072      19.29580620      16.27168766
C        3.43613739      16.52692751       3.06074532
H       16.43409453      23.81611465      15.18528115
N        4.45579518      16.77352296       3.85827186
H        5.10716502      17.53449884       3.66030024
H        4.59483357      16.24941505       4.72182375
N        2.55770337      15.57530814       3.28443249
H        2.64282892      14.94889018       4.08902146
H       14.89890159      22.09235352      15.65839845
Cs       3.36663144      16.30706843       9.89526980
