233
Lattice="-12.957396986651146 6.351727325886291 13.017959588757243 13.11604327292129 6.668741413988977 13.017959588757243 13.195366416056363 13.17897578392661 -6.508979794378622" Properties=species:S:1:pos:R:3 pbc="T T T"
Pb      -6.54324299       6.59937003      12.99443864
I       -3.20839243       6.61517694      12.65191321
I       -6.51545865       9.75663166      12.81304041
I        6.50981440      19.96132308       9.74494750
C       -3.30517946       9.69969803      15.97105273
H       -3.03001176      10.28647630      15.08969201
N       -3.17039674       8.39030941      15.92822883
H       -2.88400464       7.91999821      15.07035982
H        9.86436094      20.98842815      10.24760199
N       -3.74745600      10.34186484      17.03281600
H       -4.10371439       9.84414363      17.84920025
H       -3.86120204      11.35093783      17.03269708
Pb       0.21044317      19.41696761       6.33746832
I        3.46578825      19.42526953       6.45542635
I       13.17358004       9.86051926      12.62964563
I       13.17980747      13.20543651      -3.41278098
C        3.21187479       2.99807757       3.25127756
H        3.61246659       2.06628568       2.84174347
N        4.02385952       3.77137782       3.94083053
H        4.98201231       3.48652653       4.11980128
H        3.69662319       4.61621672       4.41829896
N        1.95123167       3.29761649       3.01427367
H        1.52568316       4.16866274       3.34214361
H        1.34707004       2.64925546       2.51608770
Pb      -0.05813521       6.50437863       6.46470041
I        3.23192166       6.67447789       6.22713122
I       -0.00202022       9.76902037       6.35381409
I        0.27596618       6.55492149       9.66158855
C        3.33990030       9.42510886       9.89980703
H        3.55077606       8.45103553      10.35058783
N        2.08634371       9.81708820       9.81358406
H        1.33751541       9.20157714      10.12214409
H        1.82655056      10.76425509       9.53233868
N        4.35356250      10.14482690       9.46934395
H        4.21475580      11.01151721       8.94705461
H        5.30224199       9.79557459       9.56239531
Pb       0.07206266       6.35380640      12.87203564
I        3.27452588       6.24887908      13.03568692
I        0.31805628       9.64214476      13.21919214
I       13.08218679      19.32593799       9.62211536
C        3.18477890       9.95339606      16.38284104
H        2.96142335      10.78775709      15.71351620
N        3.56198277      10.21881814      17.61849055
H        3.61910600      11.17370855      17.96705727
H        3.77464834       9.46468218      18.27142720
N        3.06323181       8.72478662      15.92215445
H       16.50356712      21.10176308       9.99375317
H        2.75177638       8.53891413      14.97217910
Pb       0.14847943      13.03795882       6.44161812
I        3.44127321      13.12844028       7.06188480
I        0.36539425      16.23444487       6.71313779
I        0.14671427      12.98223652       9.71148036
Pb       0.22978988      12.92684002      13.03008894
I        3.44018619      13.25892062      12.59848186
I        0.30938928      16.21993501      12.68894341
I        0.33281784      12.84706410      16.20881482
C        3.60079537      16.32257638      16.32587048
H        4.36965116      15.67533502      16.75771031
N        2.44790748      15.78807279      15.97619830
H        2.23401518      14.80252627      16.12185613
H        1.72795606      16.34690561      15.51885842
N        3.86298426      17.60468710      16.17449100
H        3.14469035      18.24485261      15.83189544
H        4.77061190      18.00556446      16.41016383
Pb       0.04357404      12.97683024      19.45737228
I        3.32875540      13.49224257      19.70413356
I       12.81480539       9.83734719       6.48787632
I        0.01982264      12.59556102      22.65135714
C        3.31166783      16.48807741      23.05751764
H       16.22165234      10.71034962      10.96982712
N       15.14508102       9.85574047       9.41695039
H       14.25432675      10.14515743       9.80934896
H        2.17422332      15.72283179      21.53700677
N        4.49787869      16.13219628      22.60437781
H        4.58704261      15.50153413      21.80837581
H       -7.78626382       9.63093950      10.14676513
Pb       6.71253923       6.60860185       0.05340456
I       -3.03012274      12.78570189      13.26890395
I        6.95712234       9.88928147       0.21164006
I        6.53832228       6.61634735       3.23863068
C       10.03040783       9.98576623       3.22118646
H       10.81182228      10.10685439       3.97746175
N       10.34885640      10.12185813       1.94936002
H       11.30273889      10.30408389       1.64396278
H        9.63008286      10.03992447       1.22812263
N        8.80574900       9.71088027       3.61899832
H        8.05778532       9.55339189       2.94243868
H        8.55798614       9.63574935       4.60311050
Pb       6.48030629       6.65219828       6.51751485
I        9.77490212       6.74327484       6.43036960
I        6.45154693       9.90615512       6.41234229
I        6.43981177       6.87384353       9.74312105
C       10.18328518       9.69549905       9.65850816
H       11.04406224       9.02073877       9.64098782
N        9.96981090      10.41163863      10.74172726
H       10.63202797      10.38553920      11.51464438
H        9.19848798      11.07855810      10.79198803
N        9.40723253       9.74891121       8.59857052
H        8.58584201      10.35233405       8.56426008
H        9.58207083       9.14758689       7.79448744
Pb       6.45962992       6.70127348      12.97270531
I        9.79214293       6.63731788      12.89394972
I        6.33499140       9.88115559      12.95516455
I       19.61123505      19.96288437       9.76380691
C        9.77556046       9.56107017      16.28420104
H       -3.11925029       1.92279725       3.72076311
N        9.87858475       9.68869008      14.97944185
H       10.05306544       8.87548753      14.38618503
H        9.79899562      10.60338005      14.52177455
N        9.43640391      10.55874172      17.07883819
H        9.02885123      11.41459062      16.70365874
H       -3.74412662       3.76279996       5.06505181
Pb       6.64257356      13.12811748      -0.04108575
I        9.85851252      13.39098781      -0.19847959
I        6.70069819      16.37937255       0.26017247
I        6.23389212      13.05692500       3.25304865
C        9.97450142      16.27133852       3.56148448
H       10.45920551      16.53051754       4.50699338
N        8.70674465      16.58973502       3.39549308
H        8.19252565      17.07386134       4.12542475
H        8.23108435      16.47291983       2.49467273
N       10.69099686      15.65090039       2.64791447
H       10.27320515      15.26770284       1.79512366
H       11.66139971      15.40709527       2.82285988
Pb       6.70323858      13.13361359       6.47417719
I        9.88281233      13.13213602       6.13919115
I        6.63485749      16.41951096       6.84866162
I        7.09796669      12.84150073       9.72117288
C       10.28789462      16.38378088       9.73627516
H       11.24516782      16.76784541      10.09955850
N        9.87995098      15.21201802      10.17213432
H       10.46018646      14.65619613      10.79430304
H        8.98218615      14.80150050       9.90161491
N        9.59860498      17.12642139       8.89608916
H        8.72319519      16.80191025       8.47186853
H        9.97024258      18.00787916       8.55409585
Pb       6.58421225      13.08969072      13.01374509
I        9.93447585      12.96915338      13.30646019
I        6.55124562      16.37971342      12.66665358
I        6.46754457      13.01019140      16.24036714
C       10.24164823      16.31336599      16.17608808
H       11.09818942      16.40677862      15.50176642
N        9.66805802      15.13455210      16.29745025
H        9.99807521      14.33859935      15.75513079
H        8.87044429      14.98410936      16.91406328
N        9.82466241      17.38430767      16.81629929
H        9.02486780      17.34411092      17.45065228
H       10.33693903      18.25942610      16.74936207
Pb       6.58046175      13.13275672      19.55190680
I       -3.29779507       6.47114094       6.67711984
I        6.78901943      16.37955417      19.07265127
I       -6.51059341       6.54487823       9.74972396
C       -2.98230195       9.42787001       9.67265533
H       -3.24398378       8.43836721      10.05746012
N       -2.17612862      10.18478688      10.38919194
H       -1.77926114       9.85739949      11.26786398
H       -1.80801657      11.06921446      10.03082571
N       -3.50504156       9.81949079       8.52888161
H       -3.30692233      10.73941584       8.12823173
H       -4.07170589       9.18842439       7.96774385
Pb       6.69329478      19.57532587      12.92207285
I        9.90984135      19.61416764      12.63442977
I       19.82879773      16.54714356       0.22753795
I        6.84532922      19.80425598      16.25921986
C       10.06181206      23.21707358      16.28064061
H        9.80476902      24.21515714      15.91542766
N       10.68136912      22.38907304      15.46303298
H       10.97689913      22.69048072      14.53562827
H       11.11259904      21.52258548      15.80449463
N        9.72235965      22.88959172      17.51070210
H        9.85526370      21.94563330      17.88072076
H       22.23172324      17.21087262       5.10920520
Pb       6.65905465      19.67965049      19.55700892
I       10.03072985      19.77871253      19.63617433
I       19.66415327      16.53079558       6.63207418
I       -6.17246900      13.15484963       9.76145210
C       10.07902421       9.97718484      -3.16809571
H       10.96927680      10.49044198      -2.79378666
N       -2.97006774      15.02475859      10.00882676
H       -2.19917527      14.48859692      10.39996266
H       -3.82558578      14.51045899       9.77627871
N        9.13689785      10.69465097      -3.75055670
H       21.48620860      16.92667520       8.74984654
H       22.33968369      18.36954108       9.17815943
Pb      13.21107401      13.22942465      -0.18136152
I        3.42777109      19.50861431      12.77397885
I        0.09605999       3.24566930       6.49232373
I       13.36552138      12.79476682       3.09633410
C       16.16796994      16.46646042       3.24330394
H       15.21291164      16.83619292       3.62881881
N       16.70293750      15.40760179       3.81418631
H       16.27109638      14.95980197       4.62172186
H       17.60506151      15.02610482       3.51189927
N       16.72342480      17.09804454       2.23129776
H       17.60971046      16.79296681       1.81763107
H        3.08334836       4.72659484       8.30854612
Pb      13.10021350      13.07643916       6.38935767
I       16.41347027      13.13624663       6.75926739
I       13.15056816      16.30722214       6.00478971
I       13.05046428      13.32820030       9.66764551
C       16.53874142      15.95263897       9.80813698
H       16.62663669      14.86971781       9.92593710
N       17.64526906      16.66753921       9.80544869
H       18.54705910      16.20270132       9.85462432
H       17.64849075      17.67342581       9.64258939
N       15.33568291      16.46971758       9.69163407
H       15.16834779      17.47358348       9.60250391
H       14.51704656      15.86528300       9.71340611
Pb      13.25794026      13.15005850      12.91836820
I        3.37241399       6.60679330      -0.23345928
I       12.93932417      16.34900442      13.01786783
I        0.05440130       6.48196152       3.17953426
C        3.58482359       9.81635345       3.34323799
H        4.49683190      10.24199405       2.91431340
N        2.98967350       8.82869685       2.70453225
H        3.37482480       8.42970926       1.84920067
H        2.18041553       8.34214843       3.09714865
N        3.12260142      10.33080385       4.46379768
H        2.26741501       9.98255998       4.91234051
H        3.62595069      11.06466366       4.95692397
Pb      13.13225292      19.59044151      12.84749694
I       16.44804111      19.84154831      12.76919042
I       13.03258080      22.86728395      12.62019962
I       12.94648666      19.62531445      16.18680617
C        3.25489908      16.57670726       3.23143154
H        2.79413946      17.48130835       3.63893692
N        4.34133987      16.11124144       3.81003804
H        4.73800185      16.56782726       4.62798414
H        4.81180631      15.25594544       3.48684923
N       15.80828367      22.67801093      15.20201528
H       16.19743262      21.84294662      14.75829895
H       14.95541131      23.05178544      14.79093460
Cs       3.41164381      16.41568001       9.77319665
