233
Lattice="-12.957396986651146 6.351727325886291 13.017959588757243 13.11604327292129 6.668741413988977 13.017959588757243 13.195366416056363 13.17897578392661 -6.508979794378622" Properties=species:S:1:pos:R:3 pbc="T T T"
Pb      -6.51695425       6.33371439      13.09097615
I       -3.25127312       6.59919805      12.90304435
I       -6.43682330       9.65178452      13.16783881
I        6.73752884      19.82166543       9.80598620
C       -3.04099237       9.20018076      16.21992838
H       -3.02598809       8.11162956      16.12482398
N       -4.20505881       9.81155936      16.19062394
H       -5.06070474       9.28072642      16.04879337
H       -4.30246395      10.82449777      16.27583813
N       -1.89073753       9.82693771      16.35145892
H       -1.82224946      10.84179610      16.42597214
H       -1.03111582       9.29107114      16.44533062
Pb       0.19378668      19.59123908       6.43801711
I        3.45382160      19.17684588       6.59318769
I       13.29064676       9.94560815      12.90476958
I       13.27656844      13.27829733      -3.32735582
C        2.90530933       3.30898007       3.33858692
H        1.93347300       3.69167592       3.01225058
N        3.58329020       4.01055079       4.22348180
H        3.20742576       4.87356652       4.60918711
H        4.43560158       3.65273416       4.66240144
N       -9.61004241       8.53730438      15.83445817
H       -8.69571926       8.14564481      16.08161415
H      -10.16570586       8.00177625      15.17155402
Pb      -0.02004248       6.56010366       6.45002895
I        3.33512325       6.55416606       6.92247804
I        0.26014004       9.84898833       6.36467491
I       -0.16262985       6.46171883       9.68886138
C        3.63686057       9.80268045       9.43395686
H        4.24754306       9.62409683       8.54381579
N        3.85412335      10.90032427      10.13141952
H        4.58968342      11.55550053       9.87117415
H        3.32672012      11.11657941      10.97621974
N        2.72133373       8.91688002       9.75782176
H        2.11318877       9.04035271      10.57096889
H        2.58965950       8.07764128       9.19562760
Pb       0.08727055       6.53396689      12.85416393
I        3.30639437       6.77334125      12.91688801
I        0.26460534       9.80302436      12.56342100
I       13.18092149      19.78164299       9.70361236
C        3.35716148       9.60327849      15.95963201
H        3.67135574       8.76214081      15.33510977
N        2.20280034      10.17682772      15.69085870
H        1.65491969       9.89251351      14.87775048
H        1.84538036      10.97001690      16.22766870
N        4.14888044       9.98764507      16.93779052
H        3.90450813      10.76039257      17.55955143
H        5.02569800       9.50481903      17.11426240
Pb       0.22119305      13.12436605       6.52342909
I        3.49752793      13.26668292       6.85888446
I        0.18060037      16.32746345       6.67526223
I        0.17118073      13.20682481       9.74782070
Pb       0.11345298      13.13876090      12.95781817
I        3.42962837      13.29585485      12.94446230
I        0.05508638      16.33315382      12.82743283
I        0.02392871      13.12084750      16.24528056
C        3.49797495      16.79047141      16.24623616
H        3.20333809      17.78797660      16.58578770
N        4.21472998      16.04538301      17.06070788
H        4.51611519      16.40981024      17.96039655
H        4.62685204      15.15617523      16.76309592
N        3.09792201      16.38757823      15.05915952
H        3.34165768      15.47012633      14.67815544
H        2.58487949      17.01087209      14.44072352
Pb       0.10428838      12.97663191      19.45941616
I        3.40251043      13.14707256      19.26410320
I       12.68380653       9.95596405       6.66942365
I        0.25970744      12.98177647      22.71629412
C        3.34315856      16.47656459      22.75016138
H       15.77723003      10.97615874      10.17796824
N        4.41183738      16.00363260      23.35677220
H       -8.33742774       9.75393819      11.19264650
H       -8.18615000       8.53265591       9.97293550
N        2.87221224      15.97197282      21.62906820
H        3.30634782      15.16980313      21.16667307
H       14.97804626       9.97964805       8.17913564
Pb       6.69474009       6.49196791      -0.00257857
I       -3.05766194      12.83347568      13.23392712
I        7.01526965       9.81741085      -0.12601103
I        6.70899000       6.50315519       3.31996775
C       10.12929409       9.98429484       2.93454005
H       10.61952249       9.85874147       1.96463233
N       10.19119793      11.16491896       3.51553592
H       10.65484594      11.94669632       3.05986892
H        9.84258082      11.32280339       4.46062177
N        9.51708010       8.94689232       3.46901352
H        8.92980679       9.05060069       4.30060813
H        9.48168858       8.05900414       2.97563772
Pb       6.65225223       6.60475955       6.55714029
I        9.84655550       6.01975698       6.62395821
I        7.13401272       9.82561032       6.39976129
I        6.66028122       6.84859361       9.81492006
C        9.61065469       9.92736271       9.94311476
H        8.59928819      10.09045448      10.32526736
N       10.37539681      10.98027888       9.73740068
H       10.03336788      11.91240906       9.94584872
H       11.27972193      10.90498154       9.27161126
N       10.00066643       8.69084298       9.71479823
H       10.96113373       8.46014557       9.45635084
H        9.36299414       7.91595952       9.88446048
Pb       6.63349373       6.69393382      13.07402025
I        9.83055455       6.65286894      13.05784074
I        6.64530935       9.89934458      13.11228741
I       19.84649171      20.15981784       9.82269451
C       10.20722489      10.02692211      16.24156061
H       -1.99186684       3.82975193       3.59079906
N        9.67161122      10.48018172      15.12761996
H       10.06868977      11.27521677      14.62846793
H        8.80955629      10.08757369      14.73582942
N       -3.42221090       2.36811334       3.92226447
H       22.05000583      21.71111977      10.12585407
H       10.21384025      15.22504529      -1.72776207
Pb       6.61258258      12.99332918       0.03981252
I        9.87286785      13.26522742       0.35462715
I        6.32623915      16.28669136       0.35679755
I        6.45839016      12.72170761       3.27626655
C       10.15773334      16.15830111       3.37988116
H       10.71923463      15.30557221       2.98771428
N       10.58488599      16.73406353       4.48255418
H       11.43158124      16.41136705       4.95150830
H       10.15724358      17.58507389       4.86293866
N        9.08202451      16.54893803       2.72878330
H        8.50898932      17.33535647       3.04466869
H        8.77553598      16.07021590       1.88628249
Pb       6.80631967      13.10840270       6.55858513
I       10.02598290      13.50240389       6.51231000
I        6.74773234      16.33263986       6.82595249
I        6.97704317      13.05652189       9.76656736
C       10.07572295      16.19460825       9.75806655
H        9.66766545      15.26172151       9.35840557
N       11.05809232      16.77599097       9.10085892
H       11.45381725      16.35507409       8.26431400
H       11.49800600      17.64143440       9.42813587
N        9.55676855      16.68487946      10.86384243
H        9.88495349      17.55892263      11.28820711
H        8.78366679      16.22006321      11.33807720
Pb       6.67723129      13.16502215      13.03615895
I        9.99124342      13.47929919      12.96659654
I        6.37340793      16.36565168      12.73537480
I        6.55125124      13.24861579      16.26269194
C        9.97812812      16.54740188      16.44464437
H        9.57623333      16.92101144      17.39104285
N       11.28102886      16.39894743      16.32735847
H       11.89715653      16.54913509      17.12959807
H       11.72794286      16.24080143      15.41796473
N        9.13087154      16.26749331      15.47304366
H        9.41452112      15.70324056      14.66919922
H        8.14307601      16.47780968      15.57129696
Pb       6.72663071      13.06053692      19.50130566
I       -3.20292634       6.50910394       6.25181383
I        6.98289238      16.28749132      19.81375761
I       -6.54848117       6.25579694       9.78341036
C       -2.95244407       9.69817310      10.05241394
H       -2.34272514       9.54339038      10.94730186
N       -4.07123665       9.01804796       9.93068946
H       -4.35353331       8.35415169      10.64725911
H       -4.68257377       9.13028012       9.11700984
N       -2.52032744      10.55166513       9.14798636
H       -3.05351024      10.75879268       8.30411632
H       -1.66582473      11.08746521       9.29130092
Pb       6.72813523      19.64559823      13.10597955
I       10.01637850      19.71608570      12.94078191
I       19.56261564      16.50590139       0.16968699
I        6.82238052      19.27674847      16.29169057
C       10.10929590      22.66185565      16.53747627
H       10.31357309      21.95136663      17.34504176
N       11.04409662      22.88499317      15.64133074
H       11.92425152      22.37324102      15.67210933
H       10.90914637      23.55877560      14.88172118
N        8.92902988      23.24814785      16.51468786
H        8.43978409       4.38230367       9.27563298
H       21.21295711      16.74572753       4.24671108
Pb       6.76890680      19.55274626      19.55811639
I       10.04577396      19.79638047      19.56573922
I       19.67391908      16.49683640       6.59446225
I       -6.47345902      12.81750712       9.79351434
C       10.02850719      10.01026115      -3.51528991
H       -2.31611421      16.16026607       8.61848856
N       10.21845281      11.14764683      -2.87690381
H       10.95082462      11.79569307      -3.16890105
H        9.73516869      11.36045585      -2.00493365
N        9.14070366       9.11208648      -3.14620505
H        8.52807465       9.26239068      -2.33725130
H       -3.95438051      14.61295015       9.33366944
Pb      13.18925079      13.28130813      -0.06843525
I        3.43565728      19.49834959      12.84905994
I       -0.24971603       3.29898625       6.30707015
I       13.36945936      13.39548892       3.17557672
C       16.46722489      16.27394627       3.41020864
H       16.28110519      15.41700624       4.06434873
N       15.64800804      16.48665206       2.40226700
H       14.84452119      15.88385282       2.24369894
H        2.57231585       4.11172302       8.29187975
N       17.50612640      17.04098909       3.66893030
H       17.73583235      17.84665103       3.08801768
H       18.09533506      16.87097729       4.48667660
Pb      13.28784213      13.17597398       6.49725602
I       16.52254757      12.88514752       6.34141292
I       13.74160605      16.44481754       6.45365176
I       13.49465696      13.20724428       9.70601642
C       16.52752949      16.35588082       9.64350136
H       16.59570025      15.61257916       8.84417549
N       16.36768720      17.62312210       9.32136763
H       16.29114018      17.93376856       8.35392407
H       16.28489420      18.33454588      10.05057955
N       16.61527656      15.94957773      10.89472269
H       16.54381410      16.62238489      11.65957520
H       16.72291634      14.96791508      11.14307083
Pb      13.31025607      13.18491882      12.98487462
I        3.41857107       6.34443898       0.14509516
I       13.25408283      16.46809026      13.16125243
I        0.38234477       6.43344506       3.21880446
C        3.16483815       9.82031808       3.06974280
H        2.20733607       9.29523700       3.01749302
N        3.18428524      11.07103393       3.47860908
H        2.31708708      11.58548045       3.63925489
H        4.06202620      11.60346634       3.50139650
N        4.25787296       9.15678948       2.74537279
H        5.16587194       9.61560381       2.73483650
H        4.21334755       8.20030166       2.40549134
Pb      13.29022114      19.73699794      12.96056695
I       16.52419448      19.30132992      12.70143643
I       13.71937889      22.96965127      12.86426637
I       13.37184376      20.00801673      16.25703886
C        3.12840331      16.37638069       3.50569089
H        2.24510712      16.49726812       4.13992313
N       16.51140532      23.97435042      15.63375628
H        2.70734624      11.60529460      22.04563364
H       17.30522182      23.89290964      14.99378752
N        3.86958636      15.29946998       3.67125444
H        4.70814678      15.13481823       3.11581381
H        3.67393280      14.64236449       4.42598902
Cs       3.37823552      16.37232619       9.70476558
