159
Lattice="12.468885909578862 12.45567328789723 0.03660330624248233 -12.500938529614729 12.48755672392219 -0.009239974293740398 0.04511830023029706 0.02729054207635215 25.947711814671685" Properties=species:S:1:pos:R:3 pbc="T T T"
Pb       0.01953743      -0.00710349       0.00974159
I       -3.10784408       5.41455715      -0.05515816
I        0.83443127       3.11252637       0.18955032
I        0.11969792      -0.23271203       3.25418619
Cs       3.26792838       3.05545811       3.26097817
Pb       0.02841054      -0.00322441       6.49577309
I       -3.09788924       7.03866349       6.55768661
I       -0.78947108       3.11239291       6.32646426
I       -0.05399305       0.22651270       9.74071676
Cs       3.02125006       3.16315817       9.75156747
Pb       0.01519737       6.22413286       0.01372122
I        3.13494727       7.04927860       0.09330409
I       -0.81813578       9.35996373      -0.11712516
I       -0.06619679       6.48968374       3.26439370
Cs      -3.23385878       3.15586552       3.24752000
Pb       0.02884237       6.21769880       6.49905587
I        3.14443942       5.41373637       6.44130098
I        0.84685968       9.36758187       6.79256630
I        0.12205863       6.01461361       9.74601184
Cs      -2.94513678       3.07948638       9.73966833
Pb       0.04690971       0.00786782      12.98563862
I       -3.08564181       5.43880231      12.89718440
I        0.85758526       3.12823065      13.15756558
I        0.14304185      -0.21871090      16.22710637
Cs       3.29416248       3.06371008      16.23815637
Pb       0.05499884       0.01263460      19.47161164
I       -3.07279683       7.07105497      19.54990961
I       -0.76407024       3.13032458      19.29332137
I       -0.03314867       0.24310880      22.71454565
Cs       3.05792226       3.18238181      22.72216211
Pb       0.03437318       6.23300515      12.99144683
I        3.15976886       7.05679042      13.07153995
I       -0.79597152       9.38452044      12.69580498
I       -0.05290257       6.50536530      16.22603129
Cs      -3.20750966       3.17405083      16.22488854
Pb       0.04714510       6.24430369      19.48021692
I        3.16552136       5.42434869      19.39809622
I        0.86732573       9.38121238      19.62481689
I        0.14545092       6.04182443      22.71970535
Cs      -2.93467176       3.10165210      22.71468016
Pb      -6.23027785       6.23738263      -0.00340612
I       -9.36010083      11.65638462      -0.05940109
I       -5.41356767       9.35564057       0.18213687
I       -6.12733756       6.01185111       3.24531202
Cs      -3.03966264       9.27042830       3.26614431
Pb      -6.21752326       6.24175277       6.46806895
I       -9.35186087      13.29665471       6.57876374
I       -7.03520953       9.35603198       6.32856399
I       -6.33556871       6.44792443       9.73536689
Cs      -3.40239524       9.21592100       9.75934412
Pb      -6.24189362      12.47198714       0.00682815
I       -3.10446660      13.29859606       0.10921495
I       -7.05900057      15.58792969      -0.15396984
I       -6.29452017      12.70207915       3.25460937
Cs      -9.47647607       9.40367147       3.24321945
Pb      -6.24720578      12.47388736       6.48969818
I       -3.09281594      11.61992798       6.54398566
I       -5.43626284      15.59523832       6.64363713
I       -6.11123543      12.25493997       9.74089626
Cs      -9.21320435       9.34614118       9.73658421
Pb      -6.20553687       6.25119304      13.00406428
I       -9.33001127      11.67486528      12.90668244
I       -5.39644983       9.36955067      13.16470288
I       -6.10495236       6.02833795      16.22655256
Cs      -3.00580409       9.25970924      16.24184508
Pb      -6.19725878       6.25637526      19.47565997
I       -9.32278168      13.31269288      19.54020286
I       -7.01289068       9.37434513      19.28427189
I       -6.28638266       6.48788275      22.70978695
Cs      -3.21021507       9.40048401      22.72485872
Pb      -6.22532070      12.49009438      12.98594196
I       -7.02251839      15.60336849      12.79741691
I       -6.25947776      12.72420174      16.22313911
Cs      -9.46174844       9.40901394      16.21887755
Pb      -6.20419432      12.49165586      19.47672352
I       -3.07088337      11.65964503      19.38357490
I       -5.38694982      15.60912333      19.64803317
I       -6.09056365      12.26582453      22.71452252
Cs      -9.18370475       9.34418536      22.70973341
Pb       6.25583364       6.22133504       0.02029082
I        3.11092559      11.63359138      -0.01437568
I        7.06791069       9.34124535       0.21202748
I        6.35088713       6.00198000       3.26852680
Cs       9.50413778       9.27496109       3.28131153
Pb       6.26432782       6.22799523       6.49373884
I        3.10544409      13.29890689       6.74073900
I        5.44662918       9.34240324       6.34154686
I        6.23919208       6.39910700       9.75977231
Cs       9.27160716       9.41076087       9.76553251
Pb       6.24976729      12.45605401       0.03294004
I        9.36820669      13.27463938       0.11739901
I        5.42219755      15.57281295      -0.12930914
I        6.12791598      12.69104051       3.28811965
Cs       3.04151925       9.33536576       3.26288248
Pb       6.26626729      12.46452946       6.52360160
I        9.37220378      11.64019560       6.45043937
I        7.05402992      15.58013219       6.72547734
I        6.34880703      12.23556730       9.76871831
Cs       3.42096915       9.16989460       9.75422982
Pb       6.27566224       6.23536199      13.02414797
I        3.13752230      11.63512087      12.82789942
I        7.09113083       9.35154373      13.16965987
I        6.37065699       6.01183859      16.24962023
Cs       9.52115932       9.29359975      16.25772208
Pb       6.28866969       6.23961572      19.49695727
I        3.14859401      13.30529743      19.54067342
I        5.46765137       9.35690610      19.31605488
I        6.20337086       6.47030082      22.73289645
Cs       9.29016670       9.40816179      22.74174802
Pb       6.29241491      12.46499363      13.01809927
I        9.39889616      13.28987883      13.08240435
I        5.47216401      15.58765507      12.87335436
I        6.15780954      12.69748510      16.25267657
Cs       3.07541196       9.36889192      16.24058627
Pb       6.28672729      12.47404266      19.50053329
I        9.40152932      11.65132862      19.41919756
I        7.09198263      15.59300207      19.67437535
I        6.36067443      12.24888363      22.74263614
Cs       3.31247384       9.31358672      22.73063803
Pb      -0.00068349      12.47275820      -0.06891917
I       -3.12427785      17.88026991      -0.04008985
I        0.82660759      15.57284844       0.21081351
I        0.12486596      12.27011158       3.24565371
Cs       3.29105659      15.55454024       3.27168940
Pb       0.01886881      12.44910889       6.27209882
I       -3.11328658      19.51678043       6.60718370
I       -0.84156406      15.55803914       6.48713521
I       -3.05816939      13.33104437      12.90799983
Cs       3.25481933      15.86761013       9.75062235
Pb      -0.00286290      18.70277800       0.02623629
I        3.11756173      19.51743947       0.11458000
I       -0.82570060      21.81735105      -0.13207107
I       -0.09494134      18.89315792       3.27661101
Cs      -3.24845297      15.66935126       3.27235098
Pb       0.00560041      18.72197651       6.51479575
I        3.12738767      17.89280255       6.41874233
I        0.81562616      21.82071228       6.70585908
I        0.10216943      18.44937221       9.76146878
Cs      -3.19389886      15.78201047       9.75624036
Pb       0.04066517      12.46245962      13.23798037
I       -3.10094788      17.91502007      12.96335111
I        0.88192353      15.57614302      13.03736997
I        0.09495311      12.26108173      16.26342872
Cs       3.28773310      15.58883994      16.24003566
Pb       0.03575571      12.49321279      19.57681542
I       -3.08757687      19.54021856      19.56109266
I       -0.78862009      15.59068371      19.29767657
I       -0.04489462      12.70129993      22.72818210
Cs       3.07105457      15.67569960      22.73025935
Pb       0.02281393      18.73394183      13.01202902
I        3.14466495      19.52651854      13.06826328
I       -0.79792542      21.83220193      12.82668499
I       -0.06246849      18.91408129      16.24792304
Cs      -3.25778412      15.64952178      16.23095796
Pb       0.03164573      18.72350836      19.49744426
I        3.15069602      17.89186980      19.41462905
I        0.84379922      21.83851285      19.66708707
I        0.12822798      18.47895263      22.73545970
Cs      -2.97699580      15.59781171      22.73007367
