159
Lattice="12.468885909578862 12.45567328789723 0.03660330624248233 -12.500938529614729 12.48755672392219 -0.009239974293740398 0.04511830023029706 0.02729054207635215 25.947711814671685" Properties=species:S:1:pos:R:3 pbc="T T T"
Pb       0.01876521      -0.00690297       0.00852295
I       -3.10829829       5.41564538      -0.05452191
I        0.83609679       3.11326919       0.17594972
I        0.12323366      -0.23342889       3.26287227
Cs       3.25869194       3.06081622       3.25578305
Pb       0.02743378       0.00205990       6.48411129
I       -3.09734736       7.01885552       6.53409927
I       -0.79060847       3.11673534       6.33708844
I       -0.03067454       0.22867199       9.74648273
Cs       3.03223271       3.20785763       9.72568391
Pb       0.01453800       6.22745025       0.01842521
I        3.13589670       7.04695421       0.08871146
I       -0.81004927       9.34728352      -0.14152366
I       -0.06376713       6.46482656       3.26727895
Cs      -3.22777369       3.16141730       3.24465477
Pb       0.02854437       6.23031331       6.48429160
I        3.14800610       5.41068539       6.43928863
I        0.82707429       9.35512995       6.69954233
I        0.11317983       6.02758241       9.74645659
Cs      -2.94048705       3.11940005       9.69578557
Pb      -0.02298516       0.03570379      12.98633604
I       -3.08502888       5.41835953      12.91711101
I        0.85519564       3.13401678      13.15834290
I        0.16110851      -0.22527484      16.22299861
Cs       3.29146888       3.09192751      16.25881533
Pb       0.05146784       0.01729868      19.47778213
I       -3.07323507       7.03869757      19.58276794
I       -0.76235741       3.13139967      19.29384481
I       -0.02741194       0.24405634      22.70540847
Cs       3.05519359       3.17962952      22.72935431
Pb       0.03017289       6.25203436      12.99094657
I        3.16419489       7.07534765      13.06577767
I       -0.84556897       9.39801033      12.83883269
I       -0.03265570       6.46376961      16.23587267
Cs      -3.21675870       3.19935850      16.26660053
Pb       0.04944403       6.23724529      19.49685466
I        3.17145930       5.42571193      19.40345658
I        0.86147880       9.36727750      19.64214579
I        0.14459603       6.02391630      22.71515148
Cs      -2.93475229       3.10830908      22.71860272
Pb      -6.22983525       6.23552550       0.00458145
I       -9.35570533      11.65626514      -0.05849354
I       -5.41291467       9.35538392       0.17101796
I       -6.13564137       6.01458724       3.25536516
Cs      -2.98927237       9.29767838       3.24796229
Pb      -6.22065229       6.23315168       6.47362486
I       -9.34269737      13.29497390       6.59721987
I       -7.04366273       9.36029217       6.34203955
I       -6.30234826       6.47763087       9.73593275
Cs      -3.20970514       9.29512392       9.66232009
Pb      -6.23787767      12.47161127       0.01113398
I       -3.11559374      13.29228829       0.08376251
I       -7.06122047      15.59015693      -0.14817286
I       -6.31688804      12.70746639       3.26233542
Cs      -9.47812597       9.39171134       3.24085693
Pb      -6.22644016      12.47212905       6.47529464
I       -3.10920695      11.64026425       6.42703961
I       -5.44782779      15.59815850       6.63063613
I       -5.97543995      12.30090238       9.78114218
Cs      -9.20886417       9.28915610       9.68059095
Pb      -6.19833023       6.26120252      12.97899561
I       -9.36073810      11.61791602      12.92206103
I       -5.33432638       9.41187376      13.14910584
I       -6.10635364       6.04261726      16.22463860
Cs      -2.98625503       9.18487459      16.32584159
Pb      -6.19858681       6.25045854      19.48694751
I       -9.31447731      13.31391194      19.50866111
I       -7.00608066       9.37767842      19.28102753
I       -6.28696063       6.49108256      22.70285095
Cs      -3.18976262       9.41886638      22.72833650
Pb      -6.44818493      12.41918614      12.97204996
I       -7.01223531      15.58750306      12.80421203
I       -6.10888149      12.77924935      16.18520992
Cs      -9.49290125       9.33894099      16.28501907
Pb      -6.19425076      12.48938474      19.48968562
I       -3.07955370      11.65880922      19.40430586
I       -5.39386937      15.61288340      19.66365723
I       -6.10570350      12.26642236      22.70529405
Cs      -9.18927686       9.34098546      22.71492847
Pb       6.25469230       6.22271079       0.02954403
I        3.12310363      11.64053791      -0.03536533
I        7.07275197       9.33620915       0.19497260
I        6.35443804       5.99639605       3.27816104
Cs       9.49580358       9.27845032       3.27580337
Pb       6.26048234       6.23594214       6.48899993
I        3.12652771      13.27956168       6.62775448
I        5.44164322       9.34319572       6.35217499
I        6.20643890       6.44258087       9.75971166
Cs       9.26873204       9.39962881       9.73673795
Pb       6.25038904      12.45623485       0.03723862
I        9.36955541      13.27524088       0.10719494
I        5.42593054      15.57661945      -0.12421701
I        6.16077951      12.68892911       3.28839839
Cs       3.00735907       9.37701981       3.26345860
Pb       6.25882331      12.46721368       6.51611110
I        9.37730070      11.63485514       6.46493633
I        7.06619011      15.58212632       6.70781676
I        6.32859877      12.22919982       9.77016553
Cs       3.31247318       9.24749082       9.69580494
Pb       6.29556461       6.23968739      13.00492114
I        3.17254287      11.61020082      12.90569625
I        7.10417404       9.35568019      13.17792247
I        6.37354174       6.01572078      16.24644264
Cs       9.51981957       9.29131001      16.28572630
Pb       6.28266038       6.24902669      19.51084520
I        3.15617597      13.29934013      19.53966255
I        5.47214010       9.35439836      19.31456255
I        6.20376285       6.46797796      22.72526354
Cs       9.29383771       9.39954613      22.74705364
Pb       6.33774206      12.49811736      13.01316897
I        9.39257705      13.33536102      13.08954083
I        5.45363105      15.59974955      12.84314492
I        6.16477203      12.69475621      16.24704611
Cs       3.00894318       9.36345384      16.30035062
Pb       6.28777634      12.47761396      19.50925430
I        9.40377272      11.65308557      19.41444034
I        7.09620131      15.59578572      19.66225982
I        6.37257449      12.24621134      22.73089661
Cs       3.29923901       9.32365465      22.73740142
Pb       0.00609736      12.46405802       0.02651191
I       -3.12409723      17.88762558      -0.04057413
I        0.82239191      15.58290986       0.19127192
I        0.10214629      12.24120887       3.28592444
Cs       3.25106428      15.53162729       3.26911681
Pb       0.00815186      12.46548699       6.49686681
I       -3.11141854      19.51096169       6.60280480
I       -0.79227220      15.58978076       6.31451474
I       -0.25243250      12.74645038       9.80495327
Cs       3.02798083      15.67589416       9.74190418
Pb      -0.00159960      18.70183557       0.02960378
I        3.11818597      19.51848396       0.10276414
I       -0.82667163      21.81513189      -0.13008203
I       -0.08789507      18.93041626       3.28070689
Cs      -3.24008047      15.63688767       3.25066779
Pb       0.01639561      18.71615006       6.49365516
I        3.12579694      17.87912595       6.45325730
I        0.81655373      21.82140851       6.69933087
I        0.09286276      18.47862391       9.75983886
Cs      -2.96528700      15.74312125       9.55630462
Pb       0.26097590      12.40644780      12.98800955
I       -3.10154238      17.74662633      12.94503332
I        0.80673055      15.57710257      13.19099738
I       -0.01666467      12.27849292      16.20904509
Cs       3.27560123      15.57566691      16.27176574
Pb       0.03846350      12.47861212      19.51052780
I       -3.09070191      19.53431378      19.55188984
I       -0.75728165      15.60194775      19.34716202
I       -0.05344496      12.71886621      22.72804504
Cs       3.04948724      15.65396946      22.74317182
Pb       0.00081562      18.71747132      13.00433819
I        3.13622227      19.54322139      13.07628159
I       -0.80970690      21.83342915      12.83235616
I       -0.08596470      18.92976415      16.24693916
Cs      -3.22118923      15.76602848      16.39842510
Pb       0.03392582      18.72649199      19.51628768
I        3.14815091      17.90172103      19.41533328
I        0.84548981      21.83566488      19.66159283
I        0.12431382      18.48911708      22.72711822
Cs      -2.95507651      15.58731689      22.73664218
