5
Lattice="6.392837556896359 1.7623334824872548e-09 1.9575003562446803e-10 1.7623332805456265e-09 6.392837580139436 -1.2255452844595954e-09 1.957491785699303e-10 -1.2255511415140361e-09 6.392837571837584" Properties=species:S:1:pos:R:3:forces:R:3:energies:R:1 energy=-14.179089546203613 stress="0.00014704157365486026 1.3605259280291548e-11 3.425333280904219e-11 1.3605259280291548e-11 0.0001470341521780938 1.0220204023358992e-11 3.425333280904219e-11 1.0220204023358992e-11 0.0001470363640692085" free_energy=-14.179089546203613 pbc="T T T"
Pb       0.00000000       0.00000000       0.00000000      -0.00000000      -0.00000000       0.00000000      -4.47620690
I        3.19641878       0.00000000       0.00000001       0.00000000       0.00000000       0.00000000      -2.05835921
I        0.00000000       3.19641879       0.00000000       0.00000000      -0.00000000       0.00000000      -2.05835921
I        0.00000000       0.00000001       3.19641878       0.00000000      -0.00000000      -0.00000000      -2.05835921
Cs       3.19641878       3.19641878       3.19641878       0.00000000      -0.00000000      -0.00000000      -3.52780461
