20
Lattice="6.234442954789431 6.227836643948615 0.018301653121241164 -6.250469264807364 6.243778361961095 -0.004619987146870199 0.02255915011514853 0.013645271038176076 12.973855907335842" Properties=species:S:1:pos:R:3:forces:R:3:energies:R:1 energy=-57.084373474121094 stress="-0.00017138539988081902 9.076490096049383e-05 5.032386616221629e-05 9.076490096049383e-05 -0.0001437578466720879 1.0011173799284734e-05 5.032386616221629e-05 1.0011173799284734e-05 0.00030051026260480285" free_energy=-57.084373474121094 pbc="T T T"
Pb       0.02089216      -0.00715188       0.01001191       0.00066977       0.00082902       0.00036177      -4.40623653
I       -3.10770148       5.40867372      -0.07591503       0.00276383       0.00162574       0.00516350      -2.11121583
I        0.84457293       3.11131871       0.20480130      -0.00526609       0.00408931      -0.00687053      -2.11140084
I        0.12690959      -0.21415320       3.25210117       0.00211156      -0.00724350       0.00482265      -2.12057573
Cs       3.24882096       3.04624085       3.25282092       0.00673757       0.00066216       0.01526956      -3.52360392
Pb       0.03174688      -0.00369077       6.49785690      -0.00122054       0.00059466      -0.00037967      -4.40854114
I       -3.09815899       7.05249894       6.60313940       0.00401893       0.00698131      -0.00795066      -2.10810894
I       -0.78520381       3.11353211       6.30045754      -0.01006705       0.00205288       0.00141887      -2.10787356
I       -0.06448111       0.21469563       9.74289592      -0.00153741       0.00570446      -0.00511188      -2.12036175
Cs       3.05152845       3.17179085       9.75822161      -0.00750958       0.00056016      -0.01499894      -3.52403373
Pb       0.01539346       6.22881701       0.01717870      -0.00021002       0.00069334      -0.00002158      -4.40423882
I        3.13762767       7.05620733       0.11080474      -0.00561660      -0.00387464      -0.00609635      -2.11156070
I       -0.81705835       9.34752641      -0.17306280       0.00622665      -0.00497569       0.00833573      -2.11184090
I       -0.07787675       6.44630605       3.25931696      -0.00266784       0.00554636       0.00210959      -2.12199146
Cs      -3.22333069       3.15571157       3.23976378       0.00009511       0.00395755       0.01331755      -3.52311152
Pb       0.02478035       6.23216089       6.50459224      -0.00079600       0.00073556      -0.00050513      -4.40820044
I        3.14382507       5.40972306       6.40448214      -0.00036635      -0.00701005       0.00748251      -2.10788065
I        0.83458626       9.35109897       6.71195575       0.00765328      -0.00109838      -0.00539180      -2.10856378
I        0.12719143       6.02304763       9.74890743       0.00332072      -0.00601467      -0.00166304      -2.12147886
Cs      -2.96430209       3.09099761       9.74758774       0.00166003      -0.00381557      -0.00929212      -3.52355826
