159
Lattice="12.468885909578862 12.45567328789723 0.03660330624248233 -12.500938529614729 12.48755672392219 -0.009239974293740398 0.04511830023029706 0.02729054207635215 25.947711814671685" Properties=species:S:1:pos:R:3:forces:R:3:energies:R:1 energy=-454.06707763671875 stress="0.0001601244293851778 0.00010425487562315539 6.170209962874651e-05 0.00010425487562315539 -1.5755318599985912e-05 3.325044963276014e-05 6.170209962874651e-05 3.325044963276014e-05 0.0003976330626755953" free_energy=-454.06707763671875 pbc="T T T"
Pb       0.02101491      -0.00668453       0.01029846       0.00006036      -0.00047889      -0.00058577      -4.40336746
I       -3.10810859       5.41005455      -0.07083688       0.00014465      -0.00072189       0.00029985      -2.11067873
I        0.84116260       3.11162719       0.20021740       0.00053184       0.00045119       0.00164574      -2.11106390
I        0.12791089      -0.22180478       3.25741932      -0.00164854      -0.00120937      -0.00327217      -2.12361538
Cs       3.25332879       3.04970896       3.26448333       0.00071328       0.00171859      -0.00066418      -3.52189332
Pb       0.03188346      -0.00294897       6.49399895       0.00011078       0.00013711       0.00193671      -4.40218878
I       -3.09632465       7.05501612       6.58600691      -0.00007435      -0.00573842      -0.01312631      -2.11469871
I       -0.79400722       3.11420243       6.30544415       0.00000595       0.00063864       0.00126605      -2.11233282
I       -0.05462235       0.21693339       9.75131431       0.00536875       0.00035895      -0.00063937      -2.12477213
Cs       3.04117444       3.18083521       9.73713310       0.00108451       0.00162702       0.00374347      -3.52178401
Pb       0.01456778       6.22918770       0.01724623      -0.00042351       0.00032273       0.00002202      -4.40414566
I        3.13574068       7.05224745       0.10505520      -0.00027941       0.00008439      -0.00033718      -2.11087346
I       -0.81304703       9.34789947      -0.16677381      -0.00146296      -0.00130207      -0.00166161      -2.11074966
I       -0.07852378       6.45256783       3.26246358       0.00300359       0.00075380      -0.00177036      -2.12323046
Cs      -3.22380703       3.15963362       3.24991261      -0.00023002       0.00001380      -0.00106932      -3.52247924
Pb       0.02563040       6.23201468       6.50143744       0.00146165      -0.00081738      -0.00030156      -4.40168822
I        3.14479651       5.40320110       6.41615360      -0.00002867       0.00030067       0.00312878      -2.11336601
I        0.83755553       9.35424430       6.71258053      -0.00139942       0.00129183       0.00239733      -2.11366081
I        0.12527654       6.02404394       9.75104478      -0.00322440       0.00246049      -0.00173203      -2.12610853
Cs      -2.96067237       3.09087697       9.73327484       0.00195135       0.00026906       0.00139226      -3.51981217
Pb       0.02059481       0.01846057      12.98466261       0.00556005       0.00059895       0.00003907      -4.37708241
I       -3.08547481       5.43092154      12.90296438       0.00035660      -0.00142343       0.00051645      -2.11315519
I        0.86383520       3.12707464      13.17310194       0.00120710      -0.00012895       0.00229739      -2.11813468
I        0.15870730      -0.21082760      16.21562781       0.00089979      -0.00259119       0.00087452      -2.12574708
Cs       3.27560134       3.06818685      16.24898645       0.00483738       0.00141137      -0.00414692      -3.52163965
Pb       0.05461044       0.01167990      19.47372443       0.00072667      -0.00014658      -0.00264973      -4.40189028
I       -3.07410652       7.07150095      19.57004248       0.00005905      -0.00443473       0.00604335      -2.11579818
I       -0.77110041       3.12789844      19.27522786       0.00052583       0.00079453       0.00020650      -2.11188215
I       -0.04079778       0.23371177      22.71012151       0.00317614       0.00026007       0.00259889      -2.12363678
Cs       3.06327846       3.18581545      22.72096142      -0.00209751      -0.00233424       0.00073307      -3.52144420
Pb       0.04055042       6.23739323      12.99180340       0.00333368       0.00136307       0.00000912      -4.39570725
I        3.16677828       7.06999718      13.07864691       0.00704265      -0.00189039      -0.00037266      -2.11690724
I       -0.81005743       9.38521087      12.81009217      -0.00463651       0.00697313      -0.00047314      -2.12530237
I       -0.05613804       6.46734485      16.23125658       0.00483620      -0.00184370       0.00144497      -2.12733638
Cs      -3.20247707       3.17670901      16.23064660      -0.00135609       0.00054499      -0.00264899      -3.51955104
Pb       0.04805734       6.24563314      19.48048871       0.00105040      -0.00026046       0.00028948      -4.40151030
I        3.16693275       5.41758967      19.38725386       0.00009679       0.00013620       0.00308087      -2.11315572
I        0.86139044       9.36815200      19.67171280      -0.00033985       0.00095217      -0.00204695      -2.11402774
I        0.15136974       6.03148089      22.71947641      -0.00132587       0.00024525       0.00149459      -2.12331539
Cs      -2.93965541       3.10021656      22.71467147       0.00022791      -0.00117105       0.00062926      -3.52245730
Pb      -6.22926799       6.23722862       0.00563842      -0.00008384       0.00042529      -0.00004999      -4.40427053
I       -9.35731353      11.65383620      -0.07532556      -0.00062787      -0.00128042       0.00030311      -2.11114639
I       -5.40922997       9.35693229       0.19546832       0.00118420      -0.00086716       0.00199095      -2.11075962
I       -6.12307867       6.02272199       3.25112967      -0.00280656      -0.00062238      -0.00161279      -2.12277341
Cs      -2.99474458       9.29175604       3.26147152       0.00125861       0.00432871      -0.00033947      -3.52215308
Pb      -6.22005410       6.23977096       6.49002437      -0.00078182      -0.00031958      -0.00042115      -4.40155840
I       -9.34502931      13.30233806       6.59277741       0.00117900       0.00030056      -0.00036355      -2.11257094
I       -7.04219291       9.36105165       6.30627078       0.00000237       0.00086654       0.00305191      -2.11383170
I       -6.31138031       6.46856946       9.73949260       0.00285272       0.00164445      -0.00157026      -2.12677258
Cs      -3.20596992       9.36582175       9.70496450      -0.00020268      -0.01374801      -0.00240321      -3.51101023
Pb      -6.23595742      12.47293629       0.01225448       0.00010990      -0.00005131      -0.00131678      -4.40171278
I       -3.11485035      13.29530349       0.10023263      -0.00028366       0.00057840      -0.00011459      -2.11103630
I       -7.06340645      15.58890738      -0.17161894      -0.00181759       0.00080035      -0.00218356      -2.11054653
I       -6.32687716      12.69703181       3.26185307       0.00272934       0.00059231      -0.00233489      -2.12653583
Cs      -9.47467521       9.40212610       3.24599862       0.00041510       0.00011799      -0.00016875      -3.52154994
Pb      -6.22507794      12.47997155       6.48535851       0.00007527      -0.00089322       0.00083187      -4.39821970
I       -3.10617065      11.65396618       6.42287985      -0.00108142      -0.00212182      -0.00217654      -2.10952842
I       -5.40670792      15.59435700       6.70945806      -0.00888546       0.00019965      -0.01505170      -2.11202258
I       -6.07609741      12.28847794       9.77017955       0.01214087       0.00425594       0.00547579      -2.13349354
Cs      -9.21367411       9.32071840       9.72433329       0.00120428       0.00033560       0.00352281      -3.51533210
Pb      -6.20956046       6.24613745      12.97872703      -0.00330888       0.00221777       0.00005456      -4.39546061
I       -9.21752525      11.71223526      12.91178702      -0.00444087      -0.00078557       0.00249546      -2.13089955
I       -5.36641165       9.39725758      13.17113359       0.00399904       0.00784551       0.00172908      -2.12601519
I       -6.09762201       6.04248412      16.21958187      -0.00167799       0.00107346       0.00175655      -2.12634259
Cs      -2.97531604       9.25198358      16.27509134      -0.00283066      -0.01181581       0.00561195      -3.50944048
Pb      -6.19774351       6.25401338      19.46916019      -0.00040886      -0.00068620       0.00009516      -4.40144414
I       -9.32113626      13.31670018      19.55429637       0.00230896       0.00094640      -0.00744556      -2.11427587
I       -7.01777077       9.37471289      19.26549392       0.00226727       0.00196452      -0.00169785      -2.11404389
I       -6.29220599       6.47871830      22.70798953       0.00143076       0.00119659       0.00129071      -2.12279254
Cs      -3.18412245       9.42757912      22.71556441      -0.00125050       0.00052679       0.00080558      -3.52186686
Pb      -6.29633032      12.46356592      12.97700293       0.02232870       0.00538963      -0.00023208      -4.17057300
I       -7.00252114      15.58574413      12.79768320      -0.00497296      -0.01091316      -0.00493754      -2.11787874
I       -6.23805179      12.73473056      16.19507502       0.02309946       0.00868255      -0.00557909      -2.13827837
Cs      -9.45582169       9.40262712      16.23552056      -0.00243502      -0.00530863      -0.00092464      -3.51441640
Pb      -6.19843403      12.49073650      19.48386012       0.00173305       0.00132753      -0.00311489      -4.39809203
I       -3.08294915      11.67104551      19.36984077       0.00063523      -0.00213326       0.00776112      -2.10844702
I       -5.37625175      15.60750872      19.65612599      -0.00152814       0.00060748       0.00689501      -2.11238903
I       -6.09747896      12.27649129      22.70883534      -0.00113143       0.00109431      -0.00020516      -2.12676030
Cs      -9.19123607       9.34277159      22.70992267      -0.00006660      -0.00053113       0.00010039      -3.52143598
Pb       6.25560135       6.22126128       0.02886814      -0.00024205      -0.00047661      -0.00031463      -4.40418965
I        3.12503742      11.63789963      -0.05211430       0.00094025      -0.00128041       0.00041185      -2.11120576
I        7.07576097       9.33967738       0.21881891       0.00108753      -0.00011613       0.00208311      -2.11066645
I        6.36301552       6.00408789       3.27428137      -0.00138651      -0.00107302      -0.00163827      -2.12316805
Cs       9.49052982       9.27556303       3.28423316       0.00121752       0.00158908       0.00039549      -3.52160841
Pb       6.26504021       6.22469600       6.51322403      -0.00088810       0.00268833      -0.00107585      -4.40216762
I        3.13435232      13.28610558       6.61746178      -0.00246305       0.00050566       0.00174841      -2.11376899
I        5.44046141       9.34167469       6.32468798      -0.00026309       0.00024625       0.00155485      -2.11334783
I        6.18759968       6.43004126       9.76311451       0.00836497      -0.00278760      -0.00009038      -2.12456423
Cs       9.27809016       9.40292573       9.75702087      -0.00094247       0.00140065       0.00262656      -3.51758158
Pb       6.24918811      12.45689055       0.03546082      -0.00062164      -0.00062183       0.00034239      -4.40319955
I        9.37003488      13.27971896       0.12340829      -0.00025292      -0.00026171      -0.00019072      -2.11114448
I        5.42143924      15.57416043      -0.14866696      -0.00085494       0.00000137      -0.00163786      -2.11106914
I        6.15524192      12.67922213       3.28329771       0.00146595      -0.00020988      -0.00286825      -2.12428170
Cs       3.01169317       9.38605968       3.26831376      -0.00053144       0.00062254      -0.00047374      -3.52149796
Pb       6.25770158      12.46142214       6.51999199      -0.00011989      -0.00019712       0.00252919      -4.40195453
I        9.37855224      11.63093763       6.43600895      -0.00068610      -0.00025618       0.00463336      -2.11328924
I        7.07530668      15.57887048       6.72568794      -0.00055537       0.00039091       0.00004338      -2.11204350
I        6.35061718      12.24224007       9.77805011      -0.00565891      -0.00188750      -0.00103506      -2.12602067
Cs       3.27834658       9.30140640       9.74550330       0.00429620      -0.00569804       0.00166854      -3.51531827
Pb       6.28950000       6.23571785      13.00389649       0.00745112      -0.00222425       0.00045496      -4.39611685
I        3.03121896      11.70007356      12.91225961       0.00373690       0.00062318      -0.00415458      -2.13035893
I        7.08675932       9.35695027      13.19301556       0.00330466       0.00056307       0.00278922      -2.11908370
I        6.40062200       6.00411624      16.24326358      -0.00333191       0.00181794       0.00037885      -2.12508380
Cs       9.51327161       9.29218112      16.26495339       0.00089047       0.00329136      -0.00225315      -3.51830959
Pb       6.28759444       6.23855876      19.49121823      -0.00006205       0.00110525       0.00021499      -4.40242243
I        3.15853267      13.30105600      19.57915137      -0.00122425       0.00094993      -0.00514189      -2.11290550
I        5.46416044       9.35542444      19.29292399       0.00088605      -0.00073476       0.00009419      -2.11259055
I        6.19413323       6.45967676      22.73070138       0.00305871      -0.00064488       0.00096929      -2.12333286
Cs       9.30060839       9.41140953      22.73698427      -0.00128080      -0.00258143      -0.00035736      -3.52207798
Pb       6.29467618      12.48167386      13.01113794      -0.00595552       0.00092698      -0.00037241      -4.37700599
I        9.39258974      13.27193020      13.09588128       0.00022072       0.00101765       0.00042990      -2.12694013
I        5.44396988      15.59039806      12.82621779      -0.00102225       0.00013410      -0.00167455      -2.11826611
I        6.17155441      12.68896207      16.24226253      -0.00104121      -0.00053729       0.00039014      -2.12565386
Cs       3.03084476       9.39141006      16.25667711      -0.00468472       0.00144470      -0.00242596      -3.51646090
Pb       6.28131234      12.47421726      19.49970225       0.00012315      -0.00002439      -0.00202518      -4.40213799
I        9.40211812      11.64530209      19.40505652       0.00016532       0.00041228       0.00212871      -2.11282021
I        7.09848732      15.59283706      19.69540565       0.00048001       0.00057308      -0.00135086      -2.11225921
I        6.38515502      12.25833646      22.73608774      -0.00240628      -0.00058962       0.00328035      -2.12403804
Cs       3.29508521       9.32702495      22.73217625      -0.00026122      -0.00093294      -0.00024965      -3.52169633
Pb       0.00519242      12.46506415       0.02403137      -0.00059251       0.00002036       0.00261380      -4.40175647
I       -3.12413152      17.88164769      -0.05692230       0.00019600      -0.00043853       0.00038181      -2.11095208
I        0.82506186      15.58202334       0.21414221       0.00148498       0.00132225       0.00239876      -2.11055875
I        0.10958190      12.25220584       3.27738371      -0.00273943       0.00041474       0.00140949      -2.12615949
Cs       3.24302444      15.52129682       3.27797596       0.00220916       0.00164047      -0.00078252      -3.52146816
Pb       0.01199531      12.46839721       6.50126456      -0.00167180       0.00059087       0.00429536      -4.39629996
I       -3.11206090      19.51966985       6.61712304       0.00017810      -0.00039557      -0.00223420      -2.11200565
I       -0.81782195      15.58471841       6.33147590       0.00349326       0.00070436      -0.00937089      -2.11384839
I       -0.14414944      12.71671108       9.79278553      -0.01946995       0.00640880       0.00510316      -2.13994169
Cs       3.03174684      15.65178348       9.74977214      -0.00273092       0.00009724       0.00456277      -3.52082568
Pb      -0.00144419      18.70078632       0.03060682      -0.00034390      -0.00064573      -0.00025533      -4.40394789
I        3.11941899      19.52386394       0.11891056      -0.00025455       0.00007651      -0.00004264      -2.11091280
I       -0.82920111      21.81814802      -0.15370915      -0.00140250      -0.00063164      -0.00213487      -2.11069119
I       -0.09614954      18.92142168       3.27629185       0.00098125      -0.00049654      -0.00154037      -2.12395948
Cs      -3.23856841      15.63397001       3.26123146       0.00088596       0.00023348      -0.00192456      -3.52193874
Pb       0.00959632      18.70511254       6.51555833       0.00091513       0.00122665      -0.00083013      -4.40200692
I        3.12880685      17.87475436       6.42996985      -0.00064316      -0.00035833       0.00316094      -2.11348706
I        0.82455989      21.82255416       6.72163186      -0.00027858      -0.00089563       0.00024800      -2.11267233
I        0.09507428      18.47301200       9.76376169      -0.00442252      -0.00089658      -0.00020049      -2.12689883
Cs      -2.97356162      15.62071412       9.67667513       0.00267864       0.02054978      -0.01484643      -3.44924384
Pb       0.11046236      12.45187081      13.00314324      -0.02211320       0.00451393      -0.00049604      -4.17077255
I       -3.10139701      17.77903305      12.92549427       0.00007035      -0.01848381       0.00373312      -2.13706028
I        0.80478189      15.57718902      13.19474786       0.00283763      -0.01079559       0.00625390      -2.11855125
I        0.08898326      12.28471597      16.21636536      -0.01144242       0.00022399      -0.00576490      -2.13127208
Cs       3.26469667      15.54152753      16.26099018      -0.00162431       0.00385760      -0.00410012      -3.52168071
Pb       0.03480009      12.48649728      19.49932352       0.00095453      -0.00026586      -0.00019130      -4.39935225
I       -3.09038024      19.53506827      19.57045324      -0.00010766       0.00109608      -0.00191609      -2.11138964
I       -0.79378842      15.59872899      19.27595620       0.00745264       0.00026007       0.01195809      -2.11141092
I       -0.05987951      12.70724254      22.72362652       0.00118075       0.00145847       0.00301100      -2.12622082
Cs       3.05299532      15.65778217      22.73453675      -0.00037875      -0.00190029       0.00071916      -3.52172190
Pb       0.00949944      18.71457615      13.00419317      -0.00845883      -0.00258842       0.00026523      -4.39642459
I        3.13374283      19.54092655      13.09194271      -0.00760888      -0.00264994      -0.00082293      -2.11713094
I       -0.79417028      21.83533857      12.81922952      -0.00316740      -0.00053577      -0.00332062      -2.11936635
I       -0.09170647      18.91572384      16.24395205      -0.00319154      -0.00257583      -0.00015797      -2.12464505
Cs      -3.21985261      15.68966317      16.29494425      -0.00082100       0.00957729       0.00985536      -3.44386601
Pb       0.03102848      18.71679003      19.49347458       0.00066882       0.00194488       0.00051355      -4.40226799
I        3.15108570      17.88913319      19.40093914      -0.00039180       0.00088631       0.00254434      -2.11331695
I        0.84759969      21.83584086      19.68964215       0.00002240      -0.00061046      -0.00169386      -2.11354798
I        0.13412627      18.49965928      22.73275999      -0.00255634      -0.00138880       0.00106222      -2.12386531
Cs      -2.95698047      15.57485035      22.73013436      -0.00092757      -0.00017543       0.00057920      -3.52211344
159
Lattice="12.468885909578862 12.45567328789723 0.03660330624248233 -12.500938529614729 12.48755672392219 -0.009239974293740398 0.04511830023029706 0.02729054207635215 25.947711814671685" Properties=species:S:1:pos:R:3:forces:R:3:energies:R:1 energy=-454.0318908691406 stress="0.00016131455777212977 9.595949813956395e-05 1.8961271052830853e-05 9.595949813956395e-05 -5.447348303277977e-05 3.624615055741742e-05 1.8961271052830853e-05 3.624615055741742e-05 0.0005244631320238113" free_energy=-454.0318908691406 pbc="T T T"
Pb       0.01964695      -0.00757698       0.00961450      -0.00115035      -0.00014630       0.00012844      -4.40269339
I       -3.10841934       5.40869679      -0.06499227      -0.00002110       0.00036835       0.00260388      -2.11223251
I        0.83799524       3.11219833       0.20749919      -0.00022376      -0.00036828       0.00219631      -2.11146539
I        0.11426387      -0.22829010       3.25589261      -0.00451826      -0.00114922      -0.00018585      -2.12490952
Cs       3.25930304       3.05683072       3.26509787       0.00083190       0.00319321       0.00071303      -3.52637529
Pb       0.02058354      -0.00181145       6.49302163      -0.00241878      -0.00056008      -0.00117980      -4.40119892
I       -3.10193030       7.04427534       6.56482022      -0.00184352       0.00034911      -0.00128940      -2.11352313
I       -0.79066118       3.12100237       6.30708727      -0.00094904       0.00093291       0.00048995      -2.11272639
I       -0.03567569       0.21572489       9.75126929       0.00264696      -0.00102257       0.00290817      -2.13002062
Cs       3.02915815       3.16282673       9.74104547       0.00008040      -0.00393070      -0.00130450      -3.52103323
Pb       0.01535551       6.22957285       0.02301612       0.00059134      -0.00047504       0.00180900      -4.40300345
I        3.13492024       7.05371445       0.10112333      -0.00015109       0.00146638       0.00073254      -2.10923934
I       -0.81352565       9.35289224      -0.14347875       0.00132710      -0.00059996       0.00117663      -2.11587906
I       -0.05725823       6.46560822       3.26986373       0.00386016       0.00175644       0.00363005      -2.12510061
Cs      -3.22605970       3.15814643       3.25227838      -0.00105543      -0.00090219       0.00103360      -3.52087700
Pb       0.02206164       6.24151999       6.51012398      -0.00141333       0.00154631       0.00284010      -4.39991045
I        3.14038281       5.41563662       6.43371563      -0.00138756       0.00195141       0.00431138      -2.11396581
I        0.82080078       9.36976693       6.78062564      -0.00870752       0.00246080       0.01205642      -2.11677730
I        0.12219606       6.02637597       9.75898374      -0.00244016      -0.00215140       0.00201355      -2.12729216
Cs      -2.95019966       3.09004372       9.73551888       0.00043098      -0.00101792       0.00195945      -3.51890880
Pb       0.03185528       0.00807439      12.98768333      -0.00287324       0.00079884       0.00135447      -4.37313575
I       -3.08204216       5.43047313      12.90814154       0.00020257      -0.00296599       0.00225200      -2.11526495
I        0.86889156       3.11300876      13.18088314      -0.00267002       0.00294712       0.00102362      -2.11836249
I        0.15599665      -0.22170193      16.21677838      -0.00306658      -0.00242359      -0.00092912      -2.12605745
Cs       3.29261616       3.07067719      16.24427432       0.00498301       0.00150470      -0.00061239      -3.52316684
Pb       0.05774241       0.01278143      19.47112498       0.00063299       0.00040010       0.00069417      -4.40127492
I       -3.07212480       7.05784705      19.58732689       0.00110693      -0.00203972       0.00391351      -2.11651611
I       -0.76890294       3.12713913      19.27691996      -0.00057413      -0.00035088       0.00053211      -2.11113364
I       -0.02756481       0.23635062      22.71068954       0.00231315       0.00091888      -0.00031518      -2.12512040
Cs       3.05473896       3.17337604      22.71987749      -0.00094697      -0.00345021      -0.00023414      -3.52217937
Pb       0.04547925       6.22932971      13.00230177       0.00042545       0.00294610       0.00129036      -4.39596522
I        3.17731132       7.05838085      13.07860228       0.00205656       0.00238822      -0.00058273      -2.11994410
I       -0.79718740       9.36910900      12.87924072      -0.00924996       0.00291089      -0.00787382      -2.11442620
I       -0.03654121       6.45124178      16.24190654       0.00229985      -0.00191321       0.00166637      -2.12542909
Cs      -3.20085232       3.17609723      16.22805732      -0.00052433      -0.00232470      -0.00132912      -3.51828915
Pb       0.05364861       6.24274581      19.48799695       0.00117420      -0.00124376       0.00261909      -4.40270376
I        3.16895935       5.41511854      19.40107226       0.00027481      -0.00200855       0.00421118      -2.11100203
I        0.86562874       9.36704747      19.68387670       0.00114761      -0.00110472      -0.00394907      -2.11425221
I        0.14670950       6.03284368      22.72896120      -0.00038196      -0.00091845       0.00108039      -2.12235677
Cs      -2.93830785       3.09667081      22.71597085      -0.00028902      -0.00008897       0.00055251      -3.52217150
Pb      -6.23168408       6.23477631       0.00555890      -0.00098583      -0.00119155       0.00045418      -4.40431935
I       -9.35976768      11.65226338      -0.07454959      -0.00183057       0.00002189      -0.00145194      -2.11131495
I       -5.41451755       9.35554524       0.19446304      -0.00211568      -0.00054861      -0.00146050      -2.11210084
I       -6.13820634       6.01295471       3.24988293      -0.00216396      -0.00204853       0.00079182      -2.12280673
Cs      -2.99632219       9.28027835       3.24389765       0.00221661      -0.00399062      -0.00349471      -3.52165616
Pb      -6.22341286       6.23721851       6.48615979      -0.00279776      -0.00045571       0.00073231      -4.40099722
I       -9.36353584      13.30106081       6.57628126      -0.00280889      -0.00010817      -0.00409526      -2.10915506
I       -7.06256559       9.34908868       6.30518299      -0.00487860       0.00037672       0.00088589      -2.11274225
I       -6.32132692       6.45575786       9.73943465       0.00230974       0.00291299       0.00114582      -2.13198346
Cs      -3.22838294       9.34275661       9.72727987       0.00605204       0.00591973      -0.00446650      -3.53217739
Pb      -6.24050187      12.47300162       0.01035625      -0.00200710      -0.00016256      -0.00201184      -4.40275902
I       -3.11433638      13.29417308       0.11669503      -0.00113327      -0.00236608      -0.00005704      -2.11555225
I       -7.06572192      15.59017196      -0.17719303      -0.00008439       0.00094163      -0.00059346      -2.11139429
I       -6.34015615      12.68191701       3.24834472      -0.00870298      -0.00488627      -0.00100906      -2.11744606
Cs      -9.47585975       9.40471331       3.24099024      -0.00237371      -0.00006762      -0.00164500      -3.52304232
Pb      -6.24603403      12.46205078       6.47340847      -0.00454871      -0.00036138      -0.00316954      -4.40357572
I       -3.14209855      11.61605785       6.34645558      -0.00538253      -0.00110514      -0.00576796      -2.09797645
I       -5.47140435      15.59243204       6.59399380       0.00142153      -0.00156180      -0.00008638      -2.11389583
I       -6.14692214      12.28220296       9.75571445       0.00173694       0.00072308      -0.00048260      -2.12520027
Cs      -9.21213217       9.33533464       9.73476031      -0.00047708       0.00328174       0.00318691      -3.51850939
Pb      -6.20666573       6.25127815      12.98167320       0.00143228       0.00283692       0.00054409      -4.39088517
I       -9.19580063      11.71975411      12.94275902      -0.00793350       0.00174476       0.00851943      -2.12825024
I       -5.36120480       9.40254037      13.18330263       0.00193116       0.00136055      -0.00026828      -2.12907302
I       -6.10472184       6.04182064      16.22161813      -0.00004399      -0.00005848       0.00089983      -2.12990183
Cs      -2.98615072       9.22703924      16.30423952       0.00028974       0.00006307       0.00386223      -3.51344401
Pb      -6.19789544       6.25463947      19.47358608       0.00012895      -0.00034828       0.00127299      -4.39998269
I       -9.31605448      13.31618732      19.52948586       0.00117874      -0.00082209      -0.00563502      -2.11518598
I       -7.01158829       9.37798887      19.25442023       0.00230727       0.00060623      -0.00309201      -2.11526567
I       -6.28856263       6.48366491      22.70958680       0.00016745       0.00044207       0.00016451      -2.12257814
Cs      -3.18891662       9.42206559      22.73113768       0.00208039       0.00003486       0.00359200      -3.52134711
Pb      -6.26971653      12.47455422      12.96313567      -0.00001298       0.00131644       0.00182537      -4.17479414
I       -7.01033342      15.58734588      12.78882444      -0.00209918      -0.00030333      -0.00163207      -2.11875540
I       -6.16320021      12.76201066      16.18669083       0.01608192       0.00570525      -0.00094426      -2.13762790
Cs      -9.46048484       9.38974739      16.23331955      -0.00054176      -0.00381387       0.00116714      -3.51176977
Pb      -6.19134589      12.49313550      19.47733037       0.00218940       0.00079428      -0.00128866      -4.39688492
I       -3.07738491      11.66255271      19.41168000       0.00112341      -0.00106093       0.00474372      -2.10985732
I       -5.38193463      15.61159256      19.67826938      -0.00072123       0.00134040       0.00727046      -2.11450350
I       -6.10764640      12.27758118      22.70348425      -0.00304418      -0.00078306      -0.00243612      -2.12521493
Cs      -9.19103646       9.34327378      22.70923851       0.00085442       0.00004505      -0.00045697      -3.52159315
Pb       6.25367178       6.22339060       0.02460031      -0.00041156       0.00128450       0.00070486      -4.40578443
I        3.11891002      11.63250209      -0.02190076       0.00113218      -0.00047979       0.00243459      -2.11379951
I        7.07596045       9.34068698       0.22599824       0.00080592       0.00044286       0.00074425      -2.10949510
I        6.34910900       6.02352782       3.26691971      -0.00152186       0.00422810       0.00096785      -2.11796439
Cs       9.50073755       9.28891688       3.28355708       0.00040772       0.00240080       0.00139072      -3.51908618
Pb       6.25207734       6.23965151       6.48849064       0.00070673      -0.00046475       0.00120808      -4.39180815
I        3.08666942      13.27403699       6.74314414      -0.00519793      -0.00372507       0.01718501      -2.11724555
I        5.42881888       9.35025077       6.32604318      -0.00224855      -0.00032395       0.00199447      -2.11761999
I        6.23388766       6.40473004       9.76175041       0.00859138      -0.00523979       0.00090853      -2.15026188
Cs       9.28777645       9.42204445       9.76321809       0.00327629       0.00112015      -0.00014460      -3.51323080
Pb       6.24471891      12.45579536       0.04240683      -0.00087533       0.00004173       0.00157149      -4.40217298
I        9.36600501      13.27629737       0.12351941      -0.00041665       0.00015558       0.00042615      -2.11225110
I        5.42011665      15.57259089      -0.15018301      -0.00190859      -0.00024353       0.00103133      -2.10936666
I        6.13770501      12.68473404       3.29311192      -0.00453345       0.00182097       0.00265408      -2.12895000
Cs       2.99953389       9.38842890       3.27994155      -0.00797025       0.00214081       0.00440628      -3.51975042
Pb       6.23143915      12.47302266       6.53744421      -0.00458763       0.00036160       0.00242824      -4.39966118
I        9.35554413      11.64232572       6.44713655      -0.00392602       0.00183672      -0.00019897      -2.11328030
I        7.06661527      15.57909838       6.73645534       0.00044450      -0.00034095       0.00110078      -2.11360675
I        6.35967811      12.23682247       9.78163378       0.00499607      -0.00301673       0.00238585      -2.11946768
Cs       3.33960394       9.21557129       9.73905585      -0.00014558      -0.00153086       0.00157927      -3.49119580
Pb       6.29643227       6.23320587      13.02309792       0.00224456      -0.00258153      -0.00076914      -4.38821024
I        3.00250065      11.70836592      12.79311213      -0.01616503       0.01219638      -0.01393814      -2.14195943
I        7.09328294       9.35451645      13.19269565      -0.00377466      -0.00025495       0.00054090      -2.12208158
I        6.37338211       6.01074389      16.24933007      -0.00372772      -0.00104325      -0.00025079      -2.12360013
Cs       9.52312130       9.30539428      16.26172497       0.00123281       0.00162715      -0.00030043      -3.51841372
Pb       6.28488452       6.24399267      19.49788570      -0.00091990       0.00190711       0.00013304      -4.40306652
I        3.15804620      13.30434837      19.57865057       0.00013134       0.00021313      -0.00204853      -2.11386758
I        5.46151664       9.35752771      19.29369125      -0.00414548       0.00051149      -0.00279321      -2.11072588
I        6.20590552       6.46515776      22.73187556       0.00157462       0.00371957      -0.00017945      -2.12318373
Cs       9.29385268       9.40531498      22.73712389      -0.00150233      -0.00104310       0.00008109      -3.52119774
Pb       6.28703091      12.47841356      13.00665477      -0.00589809      -0.00124039      -0.00037787      -4.37100017
I        9.39316862      13.26224494      13.09337064      -0.00411562      -0.00923759       0.00054500      -2.12785661
I        5.46110884      15.59174290      12.83094219       0.00333688       0.00028731       0.00280942      -2.11763710
I        6.15995152      12.68456236      16.24213703      -0.00624430      -0.00348271      -0.00052803      -2.12966365
Cs       3.02371071       9.40143230      16.24361128      -0.00581728       0.00880762      -0.00532767      -3.51501012
Pb       6.27984877      12.47413490      19.50155860      -0.00031693      -0.00089845       0.00126531      -4.40050471
I        9.40266608      11.64930845      19.41364412      -0.00000803      -0.00000061       0.00117507      -2.11368316
I        7.09807846      15.59351188      19.69339758      -0.00047252      -0.00065381      -0.00033244      -2.11260021
I        6.37087389      12.25520085      22.74238718      -0.00237706      -0.00043432       0.00038583      -2.12547481
Cs       3.29648204       9.32702829      22.74097232      -0.00052861       0.00331416       0.00209749      -3.52212077
Pb       0.00561802      12.46809798       0.09009276       0.00126508       0.00048261      -0.00020071      -4.38898700
I       -3.12479141      17.88312953      -0.05045208      -0.00038182       0.00041409       0.00151586      -2.11161625
I        0.83065120      15.58103833       0.24070409      -0.00000167       0.00192623       0.00267083      -2.11247534
I        0.12048161      12.28583002       3.41109348       0.00266188       0.00246312      -0.01466877      -2.12666386
Cs       3.24471621      15.51243688       3.30264323      -0.00391724      -0.00865964       0.00787677      -3.52064902
Pb      -0.07008807      12.47579126       6.62188696      -0.00529526       0.00284835       0.00376483      -4.36644948
I       -3.11435394      19.51629477       6.61898573      -0.00011922       0.00146227      -0.00060517      -2.12097597
I       -0.83568002      15.58963809       6.35587082      -0.00214638       0.00377812      -0.00712741      -2.11500728
I       -0.86656332      12.75334187       9.97761241       0.11628427      -0.00018601      -0.09089638      -2.14180934
Cs       3.06067320      15.71442246       9.78065932      -0.01026100      -0.00231780       0.00686863      -3.49533314
Pb      -0.00156328      18.70051761       0.03426291      -0.00004740       0.00045064       0.00201370      -4.40402812
I        3.11834499      19.52314885       0.11615171      -0.00023820       0.00018244      -0.00133949      -2.10984313
I       -0.83022056      21.81636946      -0.15822844      -0.00038618       0.00049805      -0.00106988      -2.11107337
I       -0.09216576      18.91818976       3.28136508      -0.00037457       0.00261739       0.00259956      -2.12418282
Cs      -3.22580078      15.63449279       3.25677666       0.00230064      -0.00048893      -0.00094451      -3.52491701
Pb       0.01532845      18.70947791       6.51721960      -0.00116920       0.00230527       0.00052884      -4.39721274
I        3.12535571      17.86805121       6.43756617      -0.00267270      -0.00288397       0.00264643      -2.11488467
I        0.82092179      21.82448392       6.72261053      -0.00250793       0.00005636       0.00159525      -2.11187178
I        0.09816672      18.48102166       9.77170916      -0.00450616       0.00588669       0.00105798      -2.13456744
Cs      -3.14301616      15.95172297       9.59464370       0.01144619      -0.01156459      -0.00232066      -3.47165769
Pb       0.06462202      12.45476977      13.02466451      -0.01161104       0.00466832      -0.00478655      -4.14984381
I       -3.09537026      17.77236757      13.00753601      -0.00006845      -0.00864846       0.00134161      -2.14276767
I        0.85007999      15.56299663      13.20628719      -0.00369643       0.00292114      -0.00213027      -2.11917049
I        0.07336088      12.28095609      16.24645209       0.00116908       0.00719404      -0.00379721      -2.13184428
Cs       3.28220223      15.55799124      16.27319865      -0.00414976      -0.00111924      -0.00305711      -3.51829749
Pb       0.03740210      12.48277412      19.53844883       0.00099417      -0.00127341       0.00046619      -4.39482695
I       -3.09096860      19.53801857      19.55914037       0.00022365       0.00073558      -0.00236878      -2.11256659
I       -0.78175631      15.59690539      19.31935039       0.00282843       0.00029198       0.00792794      -2.11373138
I       -0.04217738      12.70520207      22.78624638       0.00473398      -0.00435434       0.00093360      -2.12573481
Cs       3.05076185      15.65231818      22.74050583      -0.00374345      -0.00243923       0.00235057      -3.52287287
Pb       0.01446098      18.69481972      13.01723913      -0.00152160      -0.00243089       0.00153927      -4.39389551
I        3.13427340      19.53393253      13.08768584      -0.00010076      -0.00162102      -0.00004518      -2.11896557
I       -0.78280718      21.82112378      12.81664992       0.00051367      -0.00178882       0.00141070      -2.11977446
I       -0.08259040      18.90989556      16.25306288       0.00424892      -0.00250644       0.00195754      -2.12483126
Cs      -3.21777390      15.70635739      16.34998562       0.00202135       0.00207944       0.00861230      -3.44576412
Pb       0.03114219      18.72094741      19.50251441       0.00085240       0.00074189       0.00290438      -4.40151995
I        3.15100519      17.89615503      19.41669990       0.00005472      -0.00043427       0.00233253      -2.11320966
I        0.84943412      21.83696627      19.68891742       0.00111353       0.00007883       0.00107285      -2.11390609
I        0.12749479      18.49799876      22.74094587      -0.00124913       0.00015139       0.00065227      -2.12290835
Cs      -2.96085884      15.57349157      22.74304396       0.00198562      -0.00380576       0.00423118      -3.52198327
159
Lattice="12.468885909578862 12.45567328789723 0.03660330624248233 -12.500938529614729 12.48755672392219 -0.009239974293740398 0.04511830023029706 0.02729054207635215 25.947711814671685" Properties=species:S:1:pos:R:3:forces:R:3:energies:R:1 energy=-453.87646484375 stress="9.120866161538288e-05 9.398421389050782e-05 -8.04009960120311e-06 9.398421389050782e-05 -0.00014877162175253034 4.0286369767272845e-05 -8.04009960120311e-06 4.0286369767272845e-05 0.0005386301781982183" free_energy=-453.87646484375 pbc="T T T"
Pb       0.01923750      -0.00744621       0.00909600      -0.00132913      -0.00002838      -0.00074377      -4.40211815
I       -3.10862241       5.40905547      -0.06458255       0.00009199       0.00040679       0.00211297      -2.11244249
I        0.83670854       3.11265863       0.20766098      -0.00038710      -0.00010527       0.00217927      -2.11187565
I        0.11127508      -0.22918907       3.25451143      -0.00554811      -0.00122450      -0.00011502      -2.12497181
Cs       3.26095172       3.05537789       3.26366074       0.00158478       0.00370855      -0.00049769      -3.52739698
Pb       0.02069351      -0.00289093       6.49075207      -0.00349837       0.00007639      -0.00227118      -4.40015805
I       -3.10199961       7.04248656       6.56329574      -0.00178965       0.00004618       0.00003366      -2.11456078
I       -0.79188661       3.12052090       6.30599861      -0.00042441       0.00085861       0.00133678      -2.11394787
I       -0.03183406       0.21183460       9.74921288       0.00490801      -0.00285133       0.00286515      -2.13352573
Cs       3.02942657       3.14867350       9.74180989       0.00158914      -0.00658354      -0.00313366      -3.52356941
Pb       0.01491885       6.22900468       0.02392943       0.00053244      -0.00121158       0.00231093      -4.40248096
I        3.13465156       7.05204620       0.09722530      -0.00040207       0.00115401      -0.00032430      -2.10996646
I       -0.81484962       9.35646527      -0.13598724       0.00158881       0.00142624       0.00337521      -2.11757326
I       -0.05799381       6.46521182       3.27074783       0.00376728       0.00106611       0.00372526      -2.12440008
Cs      -3.22611808       3.15719548       3.25096725      -0.00065993      -0.00111057       0.00077018      -3.52054220
Pb       0.02010859       6.23762697       6.50990211      -0.00083351       0.00293539       0.00443411      -4.39867437
I        3.13830426       5.41715159       6.43489275       0.00007414       0.00102128       0.00462444      -2.11396611
I        0.83628071       9.37206114       6.76788017      -0.00520331      -0.00110133       0.01115172      -2.11969918
I        0.12621709       6.02706696       9.75952020      -0.00071495      -0.00236217       0.00003602      -2.12772381
Cs      -2.94492752       3.08873452       9.73643194       0.00178661      -0.00233886       0.00279993      -3.51792175
Pb       0.04810485      -0.00253751      12.98890839      -0.00182708       0.00305678       0.00229177      -4.37326378
I       -3.07823399       5.43186219      12.90685205      -0.00060215      -0.00476871       0.00223878      -2.11594182
I        0.88172217       3.09950070      13.18163131      -0.00373803       0.00174731      -0.00027991      -2.11736923
I        0.15872442      -0.22438868      16.21821925      -0.00342313      -0.00294634      -0.00170555      -2.12635374
Cs       3.29721239       3.06576696      16.24476326       0.00742073       0.00085243      -0.00029210      -3.52498758
Pb       0.05816548       0.01215584      19.47163459       0.00109181       0.00056525       0.00106803      -4.40121424
I       -3.07186169       7.05708944      19.58854997       0.00157854      -0.00236024       0.00412719      -2.11684889
I       -0.76776550       3.12682838      19.27989142      -0.00093137      -0.00036779       0.00119097      -2.11091846
I       -0.02747789       0.23614639      22.71095464       0.00236297       0.00078445      -0.00015687      -2.12512594
Cs       3.05446451       3.17273068      22.72012465      -0.00079618      -0.00367586      -0.00035971      -3.52228731
Pb       0.05349718       6.21791462      13.00662305      -0.00029122       0.00830619       0.00072792      -4.39950800
I        3.18431608       7.04429694      13.08236921       0.00571207       0.00315128       0.00034229      -2.11768407
I       -0.75932800       9.35010779      12.90785724      -0.00989483       0.00215708      -0.00768480      -2.10518903
I       -0.03360335       6.44049589      16.24560161       0.00266532      -0.00374557       0.00303744      -2.12348229
Cs      -3.19825201       3.17647628      16.22995519       0.00012194      -0.00330994      -0.00197205      -3.51862633
Pb       0.05444672       6.24220004      19.48933005       0.00134779      -0.00212637       0.00211941      -4.40303314
I        3.16927207       5.41519056      19.40271891       0.00062446      -0.00226319       0.00472796      -2.11058199
I        0.86585517       9.36877324      19.68292973       0.00153341      -0.00047257      -0.00584014      -2.11523837
I        0.14589570       6.03438187      22.73117721      -0.00040230      -0.00035897       0.00109070      -2.12224758
Cs      -2.93776961       3.09652214      22.71640029      -0.00023630      -0.00013711       0.00048386      -3.52210289
Pb      -6.23160709       6.23482512       0.00392574      -0.00095144      -0.00118224       0.00008607      -4.40358180
I       -9.35993093      11.65335243      -0.07595476      -0.00187247       0.00037718      -0.00260061      -2.11198729
I       -5.41538538       9.35485547       0.19225669      -0.00215156      -0.00054655      -0.00290050      -2.11234939
I       -6.13627254       6.01087648       3.24869192      -0.00082612      -0.00257869       0.00054327      -2.12382287
Cs      -3.00664758       9.27409375       3.24635799       0.00070599      -0.00464228      -0.00334464      -3.52184713
Pb      -6.22181042       6.23806072       6.48057790      -0.00225918       0.00062392       0.00024154      -4.39814156
I       -9.36576422      13.29750007       6.56021519      -0.00405055       0.00069568      -0.00866606      -2.10747749
I       -7.06605673       9.34412313       6.29497129      -0.00555927      -0.00031210      -0.00109082      -2.11130542
I       -6.33173797       6.44432960       9.73867071       0.00007215       0.00092349       0.00078834      -2.14125234
Cs      -3.26051938       9.30461027       9.75280123       0.00709352       0.00988914       0.00142591      -3.53927016
Pb      -6.24124771      12.47211299       0.00532521      -0.00251317      -0.00039029      -0.00237405      -4.40313917
I       -3.11170825      13.29426053       0.12040612       0.00085941      -0.00253102      -0.00034491      -2.11688799
I       -7.06457163      15.59040541      -0.17680052       0.00027952       0.00097816      -0.00057025      -2.11188197
I       -6.33847948      12.67251975       3.23932484      -0.00740465      -0.00552871      -0.00211347      -2.11491734
Cs      -9.47769912       9.40702452       3.23672848      -0.00336964       0.00024907      -0.00295380      -3.52376878
Pb      -6.25299400      12.45489360       6.46863062      -0.00372184      -0.00108081      -0.00421984      -4.40586925
I       -3.13594988      11.60044683       6.36084286      -0.01133741      -0.00782020      -0.00866608      -2.10104400
I       -5.49323607      15.58996557       6.55951570       0.00296602      -0.00177167       0.00236189      -2.11533660
I       -6.25109139      12.25485688       9.73453667      -0.00350455      -0.00383557       0.00114523      -2.11115938
Cs      -9.21471749       9.34521561       9.73822166      -0.00321861       0.00346114       0.00433427      -3.52393901
Pb      -6.20348355       6.24977835      12.98702492       0.00439648       0.00356823       0.00082529      -4.38762921
I       -9.16794916      11.73059213      12.95852605      -0.01400179       0.00103188       0.01405274      -2.11993092
I       -5.35572871       9.39967687      13.18680898       0.00342995       0.00270411      -0.00011287      -2.13278002
I       -6.10489547       6.04056422      16.22263241       0.00084849       0.00017152       0.00085477      -2.13041586
Cs      -2.98776690       9.22499669      16.30805105       0.00211764       0.00019857       0.00376998      -3.51511180
Pb      -6.19757870       6.25533363      19.47508961       0.00028065      -0.00052215       0.00115755      -4.39959896
I       -9.31559063      13.31545434      19.52931389       0.00188811      -0.00125538      -0.00640059      -2.11578220
I       -7.01162038       9.37793351      19.25350359       0.00275081       0.00105405      -0.00355891      -2.11559397
I       -6.28819422       6.48404864      22.70977430       0.00003144       0.00070005       0.00010679      -2.12294281
Cs      -3.19099478       9.41887103      22.73311274       0.00177929      -0.00084719       0.00375691      -3.52110648
Pb      -6.23566556      12.48095340      12.93529580      -0.00179160       0.00103397       0.00287632      -4.19230998
I       -7.00352917      15.59005189      12.78784162      -0.00035802      -0.00096574      -0.00303524      -2.11730599
I       -6.15004938      12.76172445      16.17929815       0.02057343       0.00567314      -0.00264913      -2.13516903
Cs      -9.45718262       9.39509511      16.23056820       0.00016506      -0.00395498       0.00210050      -3.51227295
Pb      -6.19021518      12.49373098      19.46804639       0.00218194       0.00095139      -0.00245424      -4.39701796
I       -3.07607869      11.66156899      19.41935535       0.00130233      -0.00151687       0.00729544      -2.10925293
I       -5.38273259      15.61221933      19.67908387      -0.00104794       0.00122477       0.00708985      -2.11509234
I       -6.10761245      12.27835465      22.69792817      -0.00329272      -0.00069195      -0.00326277      -2.12432927
Cs      -9.19071978       9.34438010      22.70875341       0.00096682       0.00007528      -0.00085510      -3.52157390
Pb       6.25384430       6.22383657       0.02099521      -0.00028757       0.00137215       0.00063947      -4.40545189
I        3.11497634      11.63264857      -0.01574900      -0.00168180      -0.00007040       0.00432501      -2.11630917
I        7.07511599       9.34126340       0.22504545       0.00063420       0.00043037      -0.00003299      -2.10968274
I        6.34666941       6.03399501       3.26346025      -0.00158576       0.00507021       0.00171031      -2.11716598
Cs       9.50327871       9.29189685       3.27971683       0.00019462       0.00199364       0.00086440      -3.51826859
Pb       6.24600682       6.24317911       6.47853397       0.00111589      -0.00171701       0.00070547      -4.38521749
I        3.07960242      13.28272235       6.74466479      -0.00487854      -0.00264014       0.01982927      -2.11604136
I        5.43000852       9.35285320       6.32134443      -0.00149611      -0.00103275       0.00284908      -2.11885905
I        6.23653400       6.40459326       9.75931813       0.00849514      -0.00391895       0.00154857      -2.16329193
Cs       9.29693449       9.43938842       9.76657587       0.00585297       0.00273097      -0.00084135      -3.51014078
Pb       6.24481650      12.45598197       0.04229882       0.00010074       0.00037262       0.00126346      -4.40152133
I        9.36491856      13.27511425       0.12342450      -0.00056349       0.00002476      -0.00028369      -2.11265987
I        5.42077724      15.57258261      -0.15110324      -0.00186936      -0.00026620       0.00015569      -2.11003131
I        6.13794647      12.68622501       3.29246440      -0.00372376       0.00206481       0.00281761      -2.12897319
Cs       3.00869069       9.37874669       3.27371835      -0.00702318       0.00140243       0.00434258      -3.52009034
Pb       6.23374199      12.47429507       6.53686853      -0.00795618       0.00121236       0.00234464      -4.39864051
I        9.35387643      11.64215776       6.44356279      -0.00537640       0.00244313      -0.00078974      -2.11385542
I        7.06342270      15.57960847       6.74104327      -0.00013006      -0.00044574       0.00205399      -2.11486220
I        6.37204660      12.24574865       9.77829440       0.00433486      -0.00123031       0.00361143      -2.11911750
Cs       3.37319239       9.17659614       9.73190602       0.00363317      -0.00511393       0.00292281      -3.48617339
Pb       6.30138078       6.23136056      13.02894294       0.00275262      -0.00329539       0.00053917      -4.38584012
I        3.05146731      11.67744914      12.78071226      -0.01999952       0.01646195      -0.02402747      -2.14252204
I        7.10928728       9.35116826      13.18969219      -0.00459026       0.00106410      -0.00035851      -2.12242824
I        6.36906639       6.01230279      16.25037396      -0.00329375      -0.00125420      -0.00123464      -2.12279797
Cs       9.52907577       9.30475408      16.26265584       0.00267511       0.00109359       0.00000017      -3.51877934
Pb       6.28466547       6.24427021      19.49858775      -0.00087597       0.00246090      -0.00073605      -4.40314859
I        3.15634524      13.30393179      19.57596440      -0.00078529      -0.00025405      -0.00316995      -2.11534292
I        5.46208079       9.35780851      19.29588877      -0.00538688       0.00090399      -0.00421390      -2.11046350
I        6.20730071       6.46517835      22.73109015       0.00194376       0.00386973      -0.00053019      -2.12345940
Cs       9.29394613       9.40582974      22.73680242      -0.00140601      -0.00099696      -0.00022814      -3.52106583
Pb       6.29858498      12.47298050      13.00648351      -0.00802125      -0.00217645      -0.00067997      -4.37474793
I        9.41607667      13.26414927      13.09475562      -0.00504952      -0.01306692       0.00080894      -2.12680471
I        5.47497242      15.58979330      12.84255254       0.00706843      -0.00124780       0.00552161      -2.11734504
I        6.16654970      12.68458575      16.24379689      -0.00563801      -0.00522498      -0.00242212      -2.12944192
Cs       3.02575984       9.39807241      16.24138954      -0.00817406       0.01101342      -0.00741761      -3.51492918
Pb       6.28040437      12.47424224      19.50080355       0.00012809      -0.00125415       0.00158440      -4.40038908
I        9.40290224      11.64978203      19.41492575      -0.00048613      -0.00006095       0.00124840      -2.11380452
I        7.09762855      15.59415416      19.69465176      -0.00070121      -0.00129307      -0.00037039      -2.11279684
I        6.36869188      12.25539072      22.74315030      -0.00303703      -0.00048344       0.00015033      -2.12551171
Cs       3.29843793       9.32641018      22.74176628      -0.00038738       0.00330051       0.00094587      -3.52163422
Pb       0.00381306      12.47039873       0.06729817       0.00018891       0.00071813       0.00212061      -4.37338072
I       -3.12486846      17.88349080      -0.04927959      -0.00030634       0.00035495       0.00145554      -2.11194587
I        0.83006193      15.57827525       0.24456492      -0.00062524      -0.00044737       0.00290190      -2.11415517
I        0.12130165      12.29752474       3.47992628       0.00033048       0.00710645       0.00343057      -2.13101876
Cs       3.25334108      15.51895970       3.29772034      -0.00297433      -0.00880540       0.00718897      -3.52075285
Pb      -0.07072923      12.46702564       6.57288384      -0.01368701       0.00215635       0.01731022      -4.27951783
I       -3.11427198      19.51401587       6.62274363      -0.00022824       0.00381318       0.00016619      -2.12840861
I       -0.83483219      15.57798740       6.37257656      -0.00403862       0.00529149      -0.00053603      -2.12233597
I       -1.54661143      12.83370561      10.40367901       0.10642804      -0.02151766      -0.14588168      -2.09930074
Cs       3.14999172      15.77661273       9.76935174       0.00174397       0.00474073       0.00498522      -3.47303587
Pb      -0.00199025      18.70061874       0.03394142      -0.00038487       0.00133542       0.00229462      -4.40320301
I        3.11811086      19.52206611       0.11599646      -0.00052049      -0.00025552      -0.00152698      -2.11041313
I       -0.82950174      21.81551275      -0.15808667      -0.00030927       0.00033218      -0.00141308      -2.11183852
I       -0.09420044      18.91368101       3.28306476      -0.00168072       0.00191762       0.00259280      -2.12445980
Cs      -3.22403079      15.63801030       3.25615494       0.00208464       0.00048310      -0.00013902      -3.52365059
Pb       0.02000529      18.71230124       6.51701182      -0.00103515       0.00042584       0.00120573      -4.39224547
I        3.12589766      17.87075251       6.42612672      -0.00198412      -0.00154892      -0.00075774      -2.11611098
I        0.81907332      21.82176863       6.71926621      -0.00241305       0.00079477       0.00043894      -2.11200666
I        0.12165657      18.48910298       9.77214880       0.00199767       0.00650782       0.00053306      -2.13725966
Cs      -3.18867952      16.13198939       9.54564660      -0.00165052       0.01293884      -0.00191575      -3.47606617
Pb       0.07345700      12.45134091      13.03933506      -0.01455154       0.00568311       0.00585397      -4.11508107
I       -3.08631649      17.77933485      13.03001414       0.00039827      -0.00885122       0.00571761      -2.14404070
I        0.89057919      15.55699053      13.19786627       0.00378164       0.00429517      -0.00491813      -2.11747140
I        0.03337785      12.29094532      16.24526563      -0.00479049       0.01044993       0.00566603      -2.13313055
Cs       3.29180957      15.56118025      16.27819096      -0.00440046      -0.00188150      -0.00291565      -3.51655740
Pb       0.03591103      12.48319974      19.53970785       0.00044423      -0.00136350      -0.00346091      -4.38988030
I       -3.09070252      19.53761954      19.55831790       0.00042487       0.00081297      -0.00264310      -2.11286783
I       -0.78164234      15.59607273      19.32420221       0.00257801      -0.00048290       0.01027351      -2.11369467
I       -0.04032815      12.70561557      22.79733636       0.00612024      -0.00578143       0.01393638      -2.13060308
Cs       3.05355195      15.65478381      22.74029430      -0.00328161      -0.00230060       0.00139779      -3.52253884
Pb       0.02621426      18.68344805      13.02115754       0.00111535      -0.00419438       0.00170452      -4.39409685
I        3.14052065      19.53475591      13.08841486       0.00337017      -0.00084348       0.00083820      -2.11898708
I       -0.77219270      21.81015041      12.81834081       0.00214745       0.00038348       0.00194504      -2.11939985
I       -0.07411268      18.90669834      16.25499670       0.00630782      -0.00328871       0.00313931      -2.12379199
Cs      -3.21954126      15.70084832      16.35457769       0.00279034       0.00038131       0.00955330      -3.44675994
Pb       0.03143298      18.72080555      19.50375838       0.00141213       0.00107592       0.00253396      -4.40175992
I        3.15154010      17.89751503      19.42084731       0.00025626      -0.00091538       0.00256115      -2.11308545
I        0.84900419      21.83643656      19.68942968       0.00157962      -0.00002218       0.00126160      -2.11359650
I        0.12690875      18.49703261      22.74276110      -0.00134479       0.00007607       0.00096172      -2.12279642
Cs      -2.96499521      15.57550385      22.74375717       0.00127614      -0.00329705       0.00422964      -3.52186936
159
Lattice="12.468885909578862 12.45567328789723 0.03660330624248233 -12.500938529614729 12.48755672392219 -0.009239974293740398 0.04511830023029706 0.02729054207635215 25.947711814671685" Properties=species:S:1:pos:R:3:forces:R:3:energies:R:1 energy=-453.80810546875 stress="3.491287134238519e-05 9.001175931189209e-05 -1.4962486602598801e-05 9.001175931189209e-05 -0.00020590276108123362 5.0349866796750575e-05 -1.4962486602598801e-05 5.0349866796750575e-05 0.0004808408848475665" free_energy=-453.80810546875 pbc="T T T"
Pb       0.01921896      -0.00732541       0.00850305      -0.00114385       0.00007457      -0.00118896      -4.40203524
I       -3.10857648       5.40912934      -0.06483590       0.00010076       0.00022741       0.00148911      -2.11219102
I        0.83619916       3.11304337       0.20748745      -0.00055285       0.00006012       0.00193938      -2.11200207
I        0.10979906      -0.22927972       3.25345423      -0.00608103      -0.00116272      -0.00068533      -2.12459373
Cs       3.26209881       3.05507682       3.26203047       0.00216513       0.00420277      -0.00175506      -3.52723289
Pb       0.02383979      -0.00208351       6.48910272      -0.00230126       0.00038648      -0.00267342      -4.39963561
I       -3.10102751       7.04245524       6.55980211      -0.00132360       0.00086416       0.00086274      -2.11550778
I       -0.79281502       3.12143254       6.30496210      -0.00035021       0.00078821       0.00141163      -2.11490798
I       -0.02803587       0.20986199       9.74698907       0.00736322      -0.00357522       0.00195792      -2.13523543
Cs       3.03304878       3.14122157       9.74240341       0.00268041      -0.00849700      -0.00400234      -3.52684402
Pb       0.01428925       6.22933911       0.02329754       0.00021743      -0.00086787       0.00214328      -4.40267825
I        3.13451849       7.05119044       0.09492754      -0.00044330       0.00067188      -0.00140552      -2.11049145
I       -0.81629515       9.35744809      -0.13716063       0.00099716       0.00133536       0.00290293      -2.11618370
I       -0.05941448       6.46648465       3.27029730       0.00334247       0.00161391       0.00299772      -2.12382579
Cs      -3.22594648       3.15680796       3.24925299      -0.00038770      -0.00114024       0.00037057      -3.52051473
Pb       0.01973861       6.23368184       6.50787255      -0.00066489       0.00172017       0.00439177      -4.39753658
I        3.13773645       5.41765959       6.43437171       0.00077196       0.00066356       0.00432592      -2.11386442
I        0.83932552       9.37783840       6.76163231      -0.00227585       0.00093713       0.00909792      -2.12084478
I        0.12706190       6.02641613       9.75752020       0.00002899      -0.00228035      -0.00176283      -2.12764311
Cs      -2.94251228       3.08726988       9.73829404       0.00254779      -0.00331691       0.00344318      -3.51724994
Pb       0.06841417      -0.01003217      12.98936376       0.00534916       0.00390171       0.00221902      -4.37496477
I       -3.07554147       5.43394400      12.90576280      -0.00083410      -0.00589042       0.00193640      -2.11572039
I        0.89135389       3.09213743      13.18202996      -0.00257827      -0.00053258      -0.00070852      -2.11617446
I        0.16143231      -0.22631791      16.21915753      -0.00302648      -0.00330218      -0.00157980      -2.12637746
Cs       3.30399016       3.06109697      16.24272109       0.01021878      -0.00068162      -0.00152328      -3.52592403
Pb       0.05889279       0.01196959      19.47154664       0.00150747       0.00052347       0.00089451      -4.40125263
I       -3.07166473       7.05679710      19.58869844       0.00172936      -0.00250772       0.00374014      -2.11689365
I       -0.76727447       3.12700974      19.28092889      -0.00103084      -0.00035627       0.00125342      -2.11079162
I       -0.02722926       0.23614509      22.71075443       0.00275119       0.00087865      -0.00022692      -2.12509531
Cs       3.05471951       3.17243185      22.71974210      -0.00058336      -0.00387836      -0.00075718      -3.52229917
Pb       0.06006147       6.21123043      13.00710477       0.00000781       0.00881211       0.00007131      -4.40287650
I        3.18895560       7.03373669      13.08284221       0.00759646       0.00224298       0.00073990      -2.11482263
I       -0.72567313       9.33701945      12.90592518      -0.00301991      -0.00028352      -0.00742894      -2.09880036
I       -0.03308067       6.43694391      16.24592212       0.00275246      -0.00452156       0.00359385      -2.12258005
Cs      -3.19709703       3.17638455      16.22987011       0.00076320      -0.00397980      -0.00265522      -3.51907218
Pb       0.05467788       6.24186963      19.48841879       0.00136180      -0.00306842       0.00096564      -4.40307015
I        3.16944390       5.41502195      19.40212873       0.00093149      -0.00240435       0.00419113      -2.11041743
I        0.86611446       9.37117293      19.67494898       0.00136414       0.00195426      -0.00906626      -2.11682552
I        0.14621934       6.03578162      22.73087736      -0.00005274       0.00002614       0.00072563      -2.12235457
Cs      -2.93757464       3.09653553      22.71649292      -0.00008339      -0.00014018       0.00026321      -3.52216280
Pb      -6.23099829       6.23541671       0.00305501      -0.00063662      -0.00097825      -0.00018405      -4.40343940
I       -9.35958937      11.65391815      -0.07676939      -0.00158718       0.00063354      -0.00281703      -2.11239398
I       -5.41415424       9.35447806       0.19265159      -0.00159601      -0.00061278      -0.00287919      -2.11219096
I       -6.13378283       6.01015620       3.24749027       0.00006285      -0.00293872       0.00015451      -2.12384075
Cs      -3.01243629       9.28074279       3.25496347      -0.00117065      -0.00188440      -0.00119960      -3.52164811
Pb      -6.22051192       6.23921431       6.47708387      -0.00109623       0.00112133      -0.00031161      -4.39701396
I       -9.36333960      13.29673922       6.54641970      -0.00316778       0.00118475      -0.01332677      -2.10583121
I       -7.06286476       9.34289386       6.28679426      -0.00414187      -0.00070328      -0.00324699      -2.10999537
I       -6.33326383       6.44125346       9.73731722      -0.00025860       0.00046448       0.00024690      -2.14609963
Cs      -3.26853284       9.28484160       9.76107853       0.00647503       0.00797702       0.00516527      -3.53922909
Pb      -6.24035496      12.47127125      -0.00057221      -0.00185173      -0.00043913      -0.00315352      -4.40353453
I       -3.10970483      13.29391336       0.11641417       0.00117905      -0.00221466      -0.00182883      -2.11640400
I       -7.06393686      15.59041807      -0.17692812       0.00056832       0.00093496      -0.00089394      -2.11219752
I       -6.33056891      12.66950673       3.23245592      -0.00304675      -0.00490555      -0.00335551      -2.11519152
Cs      -9.47822594       9.40821683       3.23427498      -0.00345176       0.00050219      -0.00352612      -3.52429593
Pb      -6.25321650      12.45307230       6.46689818      -0.00261732      -0.00153858      -0.00397640      -4.40702009
I       -3.11539705      11.60891293       6.40413410      -0.00425819      -0.00479566       0.00311754      -2.11039257
I       -5.49639581      15.58994705       6.55643539       0.00248075      -0.00174263       0.00175376      -2.11643684
I       -6.33246885      12.23565827       9.71071637      -0.02072728      -0.00669042      -0.00511747      -2.09612697
Cs      -9.21922869       9.34987320       9.74314972      -0.00624211       0.00279763       0.00588801      -3.52788836
Pb      -6.20158891       6.24884646      12.98939782       0.00685963       0.00397833       0.00087026      -4.38737476
I       -9.13936350      11.74449261      12.96898235      -0.00845867       0.00351688       0.01678018      -2.11177367
I       -5.35295071       9.39019744      13.18686169       0.00308699      -0.00091564       0.00025601      -2.13077718
I       -6.10477983       6.03987284      16.22346576       0.00133708       0.00011159       0.00059973      -2.13049197
Cs      -2.98983576       9.22191938      16.30608016       0.00141124      -0.00113928       0.00328811      -3.51637477
Pb      -6.19763111       6.25574415      19.47553071       0.00040033      -0.00049822       0.00066010      -4.39960837
I       -9.31488724      13.31522031      19.52805108       0.00274882      -0.00148354      -0.00737951      -2.11625123
I       -7.01180684       9.37791070      19.25200546       0.00300108       0.00147077      -0.00431271      -2.11568218
I       -6.28823829       6.48452927      22.70973248      -0.00006555       0.00109214      -0.00015385      -2.12322068
Cs      -3.19301933       9.41760418      22.73248060       0.00088842      -0.00152618       0.00360069      -3.52127039
Pb      -6.18181363      12.48645784      12.90179368       0.01280980       0.00201299      -0.00603397      -4.24086028
I       -6.99277422      15.59163536      12.78403179       0.00435438       0.00084997      -0.00546013      -2.11625046
I       -6.13490237      12.76209264      16.17365649       0.02661598       0.00564732      -0.00346221      -2.13309377
Cs      -9.45304881       9.40138706      16.22541991       0.00147665      -0.00245800       0.00102804      -3.51252466
Pb      -6.18866810      12.49467010      19.45606302       0.00199638       0.00131898      -0.00528797      -4.39765346
I       -3.07416144      11.66001125      19.42019197       0.00327151      -0.00234657       0.00783639      -2.10864443
I       -5.38275719      15.61292283      19.67992770      -0.00114497       0.00102974       0.00643640      -2.11538243
I       -6.10744773      12.27839534      22.69279816      -0.00375826      -0.00077736      -0.00507950      -2.12352073
Cs      -9.19015770       9.34531001      22.70804274       0.00110264       0.00034434      -0.00127686      -3.52146465
Pb       6.25390221       6.22391060       0.01941217      -0.00023934       0.00128778       0.00023668      -4.40504062
I        3.11426921      11.63244839      -0.01917589      -0.00166350      -0.00030056       0.00307529      -2.11563319
I        7.07471146       9.34134093       0.22415520       0.00055361       0.00032204      -0.00040462      -2.10984683
I        6.34585239       6.03716837       3.26229420      -0.00162494       0.00495167       0.00172072      -2.11786366
Cs       9.50399857       9.29255877       3.27728934       0.00021215       0.00160855       0.00026776      -3.51795775
Pb       6.24441285       6.24461334       6.47733029       0.00061335      -0.00177633       0.00068519      -4.38378018
I        3.08494567      13.29095693       6.73108797      -0.00370109      -0.00032602       0.01367203      -2.11771297
I        5.42896293       9.35368201       6.32150341      -0.00138113      -0.00110762       0.00398174      -2.11889952
I        6.23462493       6.40917414       9.75691041       0.00869422      -0.00249487       0.00183190      -2.16406053
Cs       9.30001714       9.44855225       9.76848934       0.00689732       0.00282776      -0.00087568      -3.50899857
Pb       6.24494719      12.45596520       0.04073194      -0.00003421       0.00031118       0.00105543      -4.40166253
I        9.36487455      13.27464357       0.12275006      -0.00047832      -0.00012173      -0.00099564      -2.11272240
I        5.42135448      15.57280990      -0.15235822      -0.00145850      -0.00014075      -0.00076211      -2.11067736
I        6.13991807      12.68614479       3.29090163      -0.00266686       0.00174347       0.00241027      -2.12849152
Cs       3.01558946       9.37134800       3.26889953      -0.00380742      -0.00127351       0.00270819      -3.51995295
Pb       6.24267143      12.47181781       6.53470225      -0.00568386       0.00067062       0.00128061      -4.39796078
I        9.35737035      11.63982661       6.44099960      -0.00459789       0.00200324      -0.00093514      -2.11489683
I        7.06278302      15.57944953       6.74262957      -0.00023405      -0.00078107       0.00245355      -2.11514121
I        6.37819268      12.25122178       9.77496281       0.00357975       0.00000038       0.00350407      -2.11912858
Cs       3.37202654       9.17404138       9.73485523       0.00301665      -0.00370384       0.00502722      -3.48569077
Pb       6.30603641       6.22811231      13.02713001       0.00316797      -0.00408688       0.00065812      -4.38748425
I        3.11482914      11.64577266      12.80764645      -0.00402902       0.00801793      -0.01456262      -2.13678718
I        7.12247407       9.34772982      13.18837137      -0.00264399       0.00138069      -0.00058756      -2.12045175
I        6.36958716       6.01318782      16.24978193      -0.00327324      -0.00110079      -0.00142235      -2.12309498
Cs       9.53259052       9.30445769      16.26353663       0.00368867       0.00106729      -0.00012561      -3.51919812
Pb       6.28490046       6.24415026      19.49762989      -0.00081442       0.00264506      -0.00104784      -4.40306836
I        3.15445128      13.30373087      19.56719655      -0.00270573      -0.00069223      -0.00680880      -2.11668956
I        5.46257412       9.35789053      19.29675080      -0.00550725       0.00129672      -0.00471769      -2.11054939
I        6.20755172       6.46525639      22.73037330       0.00205704       0.00373326      -0.00080557      -2.12346548
Cs       9.29387332       9.40602686      22.73650059      -0.00138528      -0.00089285      -0.00044364      -3.52105021
Pb       6.31171401      12.46879144      13.00822313      -0.00464989      -0.00253905      -0.00038274      -4.38225609
I        9.44107358      13.26527950      13.09598021       0.00145362      -0.01277061       0.00088420      -2.12450010
I        5.48265901      15.58675752      12.85076818       0.00877522      -0.00272099       0.00670770      -2.11722249
I        6.17522458      12.68554207      16.24614046      -0.00233964      -0.00502391      -0.00284477      -2.12753862
Cs       3.02955694       9.39242133      16.23991129      -0.00727036       0.00925502      -0.00793678      -3.51486182
Pb       6.28132374      12.47446683      19.49895249       0.00101992      -0.00132939       0.00144581      -4.40074241
I        9.40339699      11.64999455      19.41573564      -0.00065073       0.00018185       0.00164763      -2.11380172
I        7.09722216      15.59460117      19.69553563      -0.00090239      -0.00154307      -0.00025571      -2.11266500
I        6.36766811      12.25577080      22.74290180      -0.00331935      -0.00039491      -0.00055445      -2.12525392
Cs       3.29868011       9.32526535      22.73953052      -0.00043010       0.00267060      -0.00025528      -3.52134615
Pb       0.00365106      12.47035903       0.03975337       0.00010530       0.00065503      -0.00553282      -4.37264675
I       -3.12489841      17.88375594      -0.04943237      -0.00024193       0.00054733       0.00130859      -2.11225778
I        0.82911418      15.57687253       0.24101336      -0.00090271      -0.00060891       0.00191365      -2.11391646
I        0.12251437      12.28892752       3.44853995       0.00095274       0.00407171      -0.01321171      -2.13725203
Cs       3.25917052      15.52478148       3.29009706      -0.00080293      -0.00624885       0.00419731      -3.52069390
Pb      -0.03382963      12.46090590       6.49106966      -0.00513731       0.00044262       0.00612181      -4.21328592
I       -3.11330886      19.51215699       6.62459572       0.00014493       0.00439719       0.00080592      -2.13120759
I       -0.82363285      15.57148588       6.35853878      -0.00211444       0.00170986      -0.00171547      -2.12749857
I       -2.09626033      12.87439263      10.91104174      -0.03517487      -0.01872998      -0.02277847      -2.07212168
Cs       3.20385087      15.80657342       9.75918205       0.01318648       0.00991111       0.00222853      -3.47047389
Pb      -0.00190400      18.70051978       0.03234386      -0.00026073       0.00114896       0.00180913      -4.40309125
I        3.11825273      19.52166124       0.11552482      -0.00042077      -0.00039746      -0.00173685      -2.11078590
I       -0.82920069      21.81534686      -0.15882999      -0.00010521       0.00026313      -0.00197046      -2.11196458
I       -0.09496658      18.91552709       3.28155841      -0.00205265       0.00244695       0.00206023      -2.12396216
Cs      -3.22871972      15.64031206       3.25285402       0.00001768       0.00133311      -0.00062409      -3.52153498
Pb       0.02336318      18.71638307       6.51417940       0.00003810       0.00021068       0.00057388      -4.39003360
I        3.12714798      17.87504656       6.41596519      -0.00123981      -0.00063666      -0.00293427      -2.11621618
I        0.82012665      21.82218657       6.71687165      -0.00185209       0.00082617      -0.00044481      -2.11222178
I        0.13564970      18.49188545       9.76901013       0.00427181       0.00547671      -0.00035641      -2.13835382
Cs      -3.18180458      16.18206827       9.52019735       0.00108214       0.02245517      -0.00674410      -3.47350782
Pb       0.09334756      12.44567150      13.05539930      -0.00491705       0.00220768       0.00740927      -4.09313011
I       -3.08149423      17.78422390      13.02894571       0.00098615      -0.00438004       0.00768442      -2.14139664
I        0.90643500      15.55314126      13.18569779       0.00747742       0.00036643      -0.00897786      -2.11720252
I       -0.01419403      12.30324574      16.20528241      -0.02106144       0.01486744      -0.00203633      -2.14313203
Cs       3.29611422      15.56487679      16.27625085      -0.00292126      -0.00074724      -0.00381106      -3.51509577
Pb       0.03412553      12.48461128      19.53404510      -0.00020742      -0.00059499      -0.00227929      -4.38240516
I       -3.09033048      19.53761988      19.55849250       0.00058080       0.00093111      -0.00267043      -2.11299413
I       -0.78192042      15.59560480      19.32299191       0.00228029      -0.00241856       0.00947732      -2.11349535
I       -0.04066244      12.70595607      22.77703924       0.00655244      -0.00598351       0.00432060      -2.13354588
Cs       3.05550947      15.65553334      22.73821804      -0.00262834      -0.00233990       0.00023192      -3.52238339
Pb       0.03034820      18.67936697      13.01996114       0.00252865      -0.00359658       0.00147994      -4.39427370
I        3.14322214      19.53401891      13.08990228       0.00527322      -0.00038896       0.00161560      -2.11941880
I       -0.76660088      21.80426885      12.81875521       0.00401559       0.00143485       0.00139050      -2.11978418
I       -0.07198825      18.90342150      16.25380496       0.00748254      -0.00383527       0.00310745      -2.12335056
Cs      -3.22208500      15.70058507      16.35240033       0.00250077       0.00011848       0.00887784      -3.44973159
Pb       0.03187990      18.72115470      19.50288067       0.00186768       0.00192518       0.00163233      -4.40197331
I        3.15174782      17.89746845      19.42184455       0.00038801      -0.00119030       0.00212098      -2.11293578
I        0.84946519      21.83619852      19.68880666       0.00193868      -0.00015925       0.00079714      -2.11325920
I        0.12660224      18.49655114      22.74185547      -0.00131815       0.00023912       0.00045745      -2.12257504
Cs      -2.96721466      15.57684352      22.74297485       0.00078625      -0.00248173       0.00374626      -3.52197987
159
Lattice="12.468885909578862 12.45567328789723 0.03660330624248233 -12.500938529614729 12.48755672392219 -0.009239974293740398 0.04511830023029706 0.02729054207635215 25.947711814671685" Properties=species:S:1:pos:R:3:forces:R:3:energies:R:1 energy=-453.8824157714844 stress="5.99232516833581e-05 8.892197365639731e-05 -1.9944673113059253e-05 8.892197365639731e-05 -0.00017106870654970407 5.3312127420213073e-05 -1.9944673113059253e-05 5.3312127420213073e-05 0.0005409994628280401" free_energy=-453.8824157714844 pbc="T T T"
Pb       0.01944765      -0.00737636       0.00830188      -0.00091248       0.00008805      -0.00163909      -4.40209109
I       -3.10845711       5.40918694      -0.06527272       0.00012466       0.00004023       0.00078561      -2.11196119
I        0.83597468       3.11342131       0.20689298      -0.00070919       0.00022618       0.00139999      -2.11208791
I        0.10950124      -0.22951519       3.25268966      -0.00637282      -0.00133187      -0.00129361      -2.12415332
Cs       3.26224536       3.05624573       3.26099328       0.00223648       0.00474628      -0.00266526      -3.52672213
Pb       0.02612206      -0.00229712       6.48891217      -0.00189883       0.00040619      -0.00299810      -4.39957720
I       -3.09966209       7.05365171       6.57361619      -0.00072020       0.00275936       0.00286864      -2.11550182
I       -0.79446254       3.12123565       6.30371345      -0.00083359       0.00089762       0.00133974      -2.11552614
I       -0.02496017       0.20991175       9.74430814       0.00907078      -0.00334816       0.00156591      -2.13539505
Cs       3.03442630       3.13879091       9.74553595       0.00312044      -0.01002322      -0.00375360      -3.52902377
Pb       0.01393152       6.22972592       0.02192325      -0.00003876      -0.00050703       0.00149127      -4.40265429
I        3.13456197       7.05081732       0.09349438      -0.00052822       0.00029795      -0.00219417      -2.11086494
I       -0.81745507       9.35813438      -0.13966160       0.00032687       0.00134080       0.00236740      -2.11515206
I       -0.06218662       6.46742592       3.26879102       0.00176615       0.00193167       0.00266079      -2.12418687
Cs      -3.22634883       3.15647718       3.24857407      -0.00037882      -0.00133121      -0.00015658      -3.51983535
Pb       0.01768132       6.23134460       6.50733232      -0.00016506       0.00161265       0.00378579      -4.39804620
I        3.13732995       5.41760631       6.43504760       0.00102102       0.00046793       0.00402456      -2.11339605
I        0.84516104       9.37879352       6.75604492      -0.00020444       0.00151997       0.00792734      -2.12134343
I        0.12886177       6.02187318       9.75409506       0.00115617      -0.00330827      -0.00137608      -2.12508935
Cs      -2.94236958       3.08609787       9.74079050       0.00292704      -0.00390695       0.00388903      -3.51766223
Pb       0.09581716      -0.01341379      12.98878099       0.01235610       0.00146267       0.00222004      -4.37984341
I       -3.07412810       5.43694226      12.90476771       0.00048767      -0.00610068       0.00132065      -2.11512548
I        0.89322274       3.09459008      13.18362574      -0.00044486       0.00042468       0.00007162      -2.11587793
I        0.16324543      -0.22620121      16.22060440      -0.00282336      -0.00306701      -0.00156677      -2.12617970
Cs       3.31165067       3.05537888      16.23709731       0.01420749      -0.00326291      -0.00342449      -3.52531022
Pb       0.06018974       0.01148684      19.47071675       0.00174842       0.00053225       0.00048486      -4.40117580
I       -3.07164358       7.05697188      19.58759357       0.00171041      -0.00289281       0.00305572      -2.11656493
I       -0.76640813       3.12809960      19.27967564      -0.00053572      -0.00043175       0.00049778      -2.11095381
I       -0.02661626       0.23651935      22.71048548       0.00349213       0.00105616      -0.00027336      -2.12518215
Cs       3.05556741       3.17285664      22.71835866      -0.00050368      -0.00388257      -0.00176268      -3.52176523
Pb       0.06239166       6.21139451      13.00143370       0.00165116       0.00684019      -0.00063190      -4.40384704
I        3.19119151       7.02786673      13.08184738       0.00777794      -0.00032976       0.00087899      -2.11386210
I       -0.70751899       9.33948980      12.86290693      -0.00346468      -0.00007701      -0.01434482      -2.09924853
I       -0.03570163       6.44704390      16.24173315       0.00268332      -0.00363416       0.00207144      -2.12366199
Cs      -3.19612298       3.17534049      16.22715841       0.00129510      -0.00444607      -0.00311222      -3.51958233
Pb       0.05469922       6.24258724      19.48458679       0.00165417      -0.00293539       0.00013776      -4.40254390
I        3.16999151       5.41479931      19.39856860       0.00131365      -0.00246454       0.00212831      -2.11075133
I        0.86626117       9.37544215      19.66368783       0.00155502       0.00241404      -0.01061795      -2.11792076
I        0.14680551       6.03832265      22.72800952       0.00050784       0.00049132       0.00038168      -2.12281269
Cs      -2.93759204       3.09668382      22.71607417       0.00018862      -0.00005753      -0.00017332      -3.52215272
Pb      -6.23058679       6.23591834       0.00305838      -0.00030220      -0.00067725      -0.00050806      -4.40328372
I       -9.35888027      11.65423323      -0.07713331      -0.00117895       0.00070751      -0.00310745      -2.11254597
I       -5.41298283       9.35447725       0.19333457      -0.00100786      -0.00056185      -0.00259848      -2.11203766
I       -6.13096806       6.01080174       3.24750615       0.00159890      -0.00273529      -0.00001442      -2.12452728
Cs      -3.01574828       9.28385687       3.26196235      -0.00224461      -0.00039957       0.00053944      -3.52070826
Pb      -6.21717275       6.24116071       6.47885333      -0.00023035       0.00073405      -0.00048147      -4.39790970
I       -9.36117408      13.29817873       6.53848366      -0.00190949       0.00164486      -0.01637705      -2.10507309
I       -7.05929582       9.34308641       6.28136317      -0.00278260       0.00028805      -0.00464181      -2.10859561
I       -6.33105193       6.44465473       9.73653785      -0.00031816       0.00106908       0.00003116      -2.14378303
Cs      -3.27126485       9.32409807       9.77041774       0.00120151       0.00845290       0.00628610      -3.52975386
Pb      -6.23899811      12.47111405      -0.00682688      -0.00130783      -0.00039174      -0.00398302      -4.40386218
I       -3.10776959      13.29468772       0.11165629       0.00149665      -0.00163039      -0.00287545      -2.11582410
I       -7.06394424      15.59036275      -0.17802685       0.00048852       0.00075985      -0.00162178      -2.11197215
I       -6.32328538      12.67236038       3.22651725      -0.00007437      -0.00454113      -0.00374861      -2.11580622
Cs      -9.47818090       9.40804722       3.23379407      -0.00362133       0.00055640      -0.00420371      -3.52408284
Pb      -6.25436941      12.45385827       6.46293197      -0.00312267      -0.00138455      -0.00556345      -4.40653092
I       -3.10024532      11.62234533       6.43512445      -0.00138953      -0.00156657       0.00998720      -2.11831188
I       -5.48998860      15.58947526       6.56665476       0.00241980      -0.00255368       0.00196468      -2.11675149
I       -6.37635978      12.22008517       9.69033987      -0.03023604      -0.00872583      -0.01236300      -2.08886027
Cs      -9.22477487       9.35257081       9.75000268      -0.00933761       0.00217050       0.00781522      -3.53055990
Pb      -6.20051423       6.24846821      12.98761450       0.00790066       0.00475299       0.00078255      -4.38958305
I       -9.12830286      11.75937585      12.97173671      -0.00039230       0.00762074       0.01763070      -2.10504544
I       -5.35439567       9.38189181      13.18314627       0.00557501      -0.00416517      -0.00364551      -2.12446427
I       -6.10424509       6.03975468      16.22339809       0.00151162      -0.00035895       0.00014954      -2.13065690
Cs      -2.99323095       9.21776995      16.29879449       0.00023943      -0.00181289       0.00208978      -3.51687020
Pb      -6.19839058       6.25631026      19.47444627       0.00040191      -0.00039710       0.00039902      -4.39982867
I       -9.31282777      13.31540438      19.52496571       0.00355764      -0.00150051      -0.00915329      -2.11721307
I       -7.01197383       9.37855059      19.24948293       0.00297544       0.00147468      -0.00546528      -2.11544162
I       -6.28843470       6.48493041      22.70953675      -0.00027323       0.00146304      -0.00034113      -2.12349486
Cs      -3.19441905       9.41726259      22.73029041       0.00017070      -0.00194694       0.00351992      -3.52140087
Pb      -6.09970779      12.49495759      12.86414167       0.02234643       0.00214182      -0.01373647      -4.31482136
I       -6.98061008      15.59371283      12.77953836       0.00907227       0.00332909      -0.00826305      -2.11446917
I       -6.10781019      12.76084985      16.16871700       0.03463168       0.00445700      -0.00417549      -2.13396358
Cs      -9.44853353       9.41067924      16.21633808       0.00291595       0.00011341      -0.00154874      -3.51252151
Pb      -6.18545330      12.49721787      19.44303015       0.00344150       0.00149132      -0.00825330      -4.39849150
I       -3.07032543      11.65659279      19.41533341       0.00427365      -0.00415261       0.00792733      -2.10847211
I       -5.37560497      15.61293525      19.67014875      -0.00014791       0.00088841       0.00438176      -2.11268252
I       -6.10560842      12.27923075      22.68747992      -0.00391305      -0.00024593      -0.00640037      -2.12338817
Cs      -9.18978182       9.34592951      22.70671673       0.00114866       0.00063412      -0.00195857      -3.52108306
Pb       6.25423500       6.22338250       0.01871287      -0.00022943       0.00101439      -0.00049014      -4.40480298
I        3.11379993      11.63204800      -0.02370181      -0.00152471      -0.00063188       0.00179843      -2.11491293
I        7.07446961       9.34115743       0.22445016       0.00043496       0.00020299      -0.00056602      -2.11011201
I        6.34595355       6.03422404       3.26202849      -0.00194178       0.00453068       0.00117397      -2.11902177
Cs       9.50397676       9.29110208       3.27726983       0.00051460       0.00113352       0.00024938      -3.51803964
Pb       6.24599704       6.24194015       6.47970114       0.00072355      -0.00117499       0.00108065      -4.38534784
I        3.08972397      13.29459075       6.72069845      -0.00283816       0.00122308       0.01001305      -2.12003386
I        5.43071444       9.35263922       6.32321277      -0.00087155      -0.00137579       0.00428080      -2.11866307
I        6.24109128       6.40632820       9.75501650       0.00888139      -0.00150402       0.00147574      -2.16036582
Cs       9.29916040       9.44017970       9.76888949       0.00729119       0.00268973      -0.00105216      -3.51002723
Pb       6.24495665      12.45588214       0.03970040      -0.00022334       0.00017459       0.00075842      -4.40177518
I        9.36492765      13.27453553       0.12224570      -0.00041942      -0.00030144      -0.00145738      -2.11272228
I        5.42146774      15.57295912      -0.15358171      -0.00095691       0.00002528      -0.00102005      -2.11110699
I        6.14067779      12.68580312       3.28998313      -0.00201801       0.00153537       0.00154868      -2.12820768
Cs       3.02085287       9.36643886       3.26637792      -0.00150486      -0.00262088       0.00173867      -3.51992083
Pb       6.24978369      12.46915649       6.53380902      -0.00392690      -0.00000293       0.00144012      -4.39786386
I        9.36038946      11.63756105       6.44079236      -0.00325405       0.00072932      -0.00037550      -2.11537766
I        7.06304006      15.57919391       6.74279816       0.00081483      -0.00047608       0.00299638      -2.11492783
I        6.37859467      12.25179608       9.77279266       0.00262227      -0.00059451       0.00279815      -2.11905056
Cs       3.37489391       9.17523305       9.74159423       0.00336723      -0.00115217       0.00840331      -3.48679036
Pb       6.31002233       6.22290152      13.02453762       0.00439901      -0.00485791      -0.00022043      -4.39051104
I        3.15809611      11.62525614      12.85145785       0.00045110       0.00511995      -0.00037378      -2.12798983
I        7.13125416       9.34515501      13.18785298      -0.00027832       0.00027893      -0.00032893      -2.11854482
I        6.37868336       6.00802018      16.24846598      -0.00202181      -0.00154410      -0.00189999      -2.12170988
Cs       9.53405507       9.30386593      16.26441071       0.00454405       0.00142749       0.00000405      -3.51977074
Pb       6.28797939       6.24120825      19.49436877      -0.00013201       0.00214375      -0.00185706      -4.40405035
I        3.15222576      13.30469320      19.55706251      -0.00283924      -0.00065112      -0.00980536      -2.11775029
I        5.46426291       9.35716765      19.29655425      -0.00435485       0.00092123      -0.00448074      -2.11104769
I        6.20773003       6.46374259      22.72934525       0.00196378       0.00278692      -0.00119424      -2.12378246
Cs       9.29354629       9.40565698      22.73627731      -0.00138199      -0.00063478      -0.00036172      -3.52123511
Pb       6.32363573      12.46686463      13.01017690      -0.00736109      -0.00412405       0.00010996      -4.38996822
I        9.45782548      13.26481854      13.09649315       0.00876445      -0.01135373       0.00031153      -2.12063003
I        5.48332313      15.58399873      12.85030226       0.00910531      -0.00132986       0.00623205      -2.11746925
I        6.18377695      12.68825746      16.24865125       0.00167407      -0.00359072      -0.00201063      -2.12538487
Cs       3.03745648       9.38574919      16.23993567      -0.00537010       0.00664392      -0.00813131      -3.51419830
Pb       6.28250132      12.47442848      19.49711021       0.00125983      -0.00106525       0.00084525      -4.40121186
I        9.40384911      11.65063188      19.41646987       0.00030776       0.00107175       0.00213179      -2.11369568
I        7.09667751      15.59477409      19.69604770      -0.00099079      -0.00096062      -0.00013618      -2.11221272
I        6.36624047      12.25594828      22.74240787      -0.00359762      -0.00041315      -0.00009523      -2.12505972
Cs       3.29787890       9.32399401      22.73555862      -0.00054806       0.00188071      -0.00114800      -3.52104992
Pb       0.00360099      12.47011502       0.02082011       0.00036337       0.00058527      -0.01061712      -4.37196755
I       -3.12485866      17.88284070      -0.05011065      -0.00012639       0.00048448       0.00105070      -2.11217451
I        0.82910900      15.57546607       0.23536542      -0.00056363      -0.00073110       0.00120862      -2.11366040
I        0.12411482      12.28292613       3.41911018       0.00149768       0.00257578      -0.01661695      -2.14230460
Cs       3.26277779      15.52958055       3.28517184       0.00037618      -0.00412908       0.00258687      -3.52043372
Pb      -0.00706615      12.45535081       6.44428486       0.00118645      -0.00080735      -0.00196691      -4.17802799
I       -3.11151923      19.50811330       6.62251841       0.00046720       0.00282940       0.00026036      -2.12943226
I       -0.81541832      15.56248258       6.36070228      -0.00307463      -0.00111281       0.00282823      -2.12920576
I       -2.57334662      12.95951402      11.49885796      -0.13580436       0.00937187       0.10898532      -2.10504353
Cs       3.20956629      15.80887666       9.75719137       0.01312331       0.00937993       0.00181401      -3.46909565
Pb      -0.00205246      18.69985479       0.03006563      -0.00017400       0.00071008       0.00098328      -4.40294015
I        3.11821265      19.52145340       0.11534134      -0.00032631      -0.00047383      -0.00204711      -2.11104792
I       -0.82900965      21.81501300      -0.15909919       0.00013075      -0.00004967      -0.00234343      -2.11209989
I       -0.09529912      18.91315663       3.27944946      -0.00167964       0.00145143       0.00160889      -2.12434161
Cs      -3.23048914      15.64245107       3.25365658       0.00035526       0.00138434      -0.00045601      -3.52074414
Pb       0.02526199      18.71606339       6.51270869       0.00019341      -0.00036738       0.00041941      -4.39014012
I        3.12978088      17.87643723       6.41489645      -0.00054271      -0.00028474      -0.00347278      -2.11577475
I        0.82077697      21.82090876       6.71541125      -0.00170764       0.00018549      -0.00111508      -2.11259258
I        0.13723997      18.49242572       9.76546866       0.00310389       0.00431385      -0.00049296      -2.13710916
Cs      -3.16200804      16.13960819       9.53039761       0.00413390       0.01243060      -0.00833587      -3.47193617
Pb       0.09383161      12.44544644      13.05505563       0.00086074       0.00048442      -0.00129730      -4.10878021
I       -3.07781960      17.78722166      13.01286107       0.00214247      -0.00144516       0.00755211      -2.13704389
I        0.90478826      15.55036003      13.16906833       0.00628870       0.00110171      -0.01145902      -2.11844093
I       -0.04580659      12.31331190      16.14562560      -0.03173790       0.01637924      -0.01439085      -2.15473938
Cs       3.29750529      15.56939575      16.26978794      -0.00226735      -0.00005042      -0.00622684      -3.51446146
Pb       0.03256644      12.48821692      19.52687895      -0.00027389      -0.00013083      -0.00429249      -4.37318844
I       -3.08969109      19.54028603      19.56056081       0.00079386       0.00163357      -0.00196825      -2.11162126
I       -0.78883456      15.59407872      19.30782184       0.00142950      -0.00252760       0.00661355      -2.11276698
I       -0.04105636      12.70440888      22.75267038       0.00659472      -0.00575742      -0.00438521      -2.13651580
Cs       3.05715675      15.65563410      22.73513188      -0.00183796      -0.00243074      -0.00079160      -3.52188140
Pb       0.02997668      18.68371083      13.01660624       0.00321346      -0.00457873       0.00110130      -4.39447176
I        3.14405764      19.53275403      13.09009236       0.00631388      -0.00151392       0.00203329      -2.12014896
I       -0.76409478      21.80423476      12.81852598       0.00494624       0.00000871       0.00056637      -2.12063092
I       -0.07173919      18.90156190      16.25076916       0.00807178      -0.00351146       0.00201177      -2.12189001
Cs      -3.21523388      15.66091049      16.30339858       0.00509543      -0.00678576      -0.00028079      -3.45643705
Pb       0.03030218      18.71969536      19.49908114       0.00172099       0.00187969       0.00056872      -4.40292674
I        3.15116749      17.89625108      19.42071016       0.00049212      -0.00111580       0.00149486      -2.11279762
I        0.84929225      21.83487725      19.68696610       0.00225997       0.00005882      -0.00000243      -2.11273110
I        0.12587440      18.49407149      22.73923209      -0.00136562      -0.00021577      -0.00002771      -2.12295800
Cs      -2.96881189      15.57832018      22.73860363       0.00037071      -0.00162185       0.00266712      -3.52228886
159
Lattice="12.468885909578862 12.45567328789723 0.03660330624248233 -12.500938529614729 12.48755672392219 -0.009239974293740398 0.04511830023029706 0.02729054207635215 25.947711814671685" Properties=species:S:1:pos:R:3:forces:R:3:energies:R:1 energy=-454.00836181640625 stress="-5.676914588548243e-05 6.444699829444289e-05 1.0498946721781977e-05 6.444699829444289e-05 -0.00012684549437835813 5.4538544645765796e-05 1.0498946721781977e-05 5.4538544645765796e-05 0.00062083505326882" free_energy=-454.00836181640625 pbc="T T T"
Pb       0.01972024      -0.00731263       0.00879951      -0.00022979       0.00006863      -0.00144886      -4.40233296
I       -3.10831324       5.40907127      -0.06520980       0.00015556      -0.00025750       0.00034929      -2.11159199
I        0.83595444       3.11412237       0.20720873      -0.00065348       0.00042959       0.00087575      -2.11210161
I        0.11117830      -0.22961385       3.25307166      -0.00510590      -0.00135523      -0.00166434      -2.12371743
Cs       3.26287785       3.05707365       3.26172231       0.00213890       0.00377318      -0.00229348      -3.52492642
Pb       0.02764931      -0.00255392       6.49097109      -0.00215470       0.00037360      -0.00221356      -4.39965421
I       -3.09847865       7.05922964       6.58135047      -0.00003061       0.00398898       0.00401888      -2.11485755
I       -0.79381101       3.12066753       6.30129321      -0.00097229       0.00147436       0.00001241      -2.11545044
I       -0.03121043       0.21364016       9.74098841       0.00673689      -0.00162811       0.00024982      -2.13250995
Cs       3.03357797       3.14073054       9.75105991       0.00180145      -0.00935319      -0.00270221      -3.52632695
Pb       0.01367483       6.23052225       0.02039280      -0.00021260      -0.00002652       0.00072078      -4.40261012
I        3.13468695       7.05088556       0.09335242      -0.00054363       0.00012950      -0.00248389      -2.11091703
I       -0.81947420       9.35868387      -0.14125477      -0.00052812       0.00087024       0.00183478      -2.11409503
I       -0.06340666       6.47043042       3.26657030       0.00079648       0.00235152       0.00170660      -2.12424827
Cs      -3.22663156       3.15517963       3.24857815      -0.00050716      -0.00140211      -0.00059766      -3.51938117
Pb       0.01844738       6.23007884       6.50676562       0.00002146       0.00209823       0.00216191      -4.39925367
I        3.13910623       5.41437872       6.43753779       0.00035164      -0.00007742       0.00390235      -2.11332822
I        0.84938082       9.37776651       6.75729661       0.00064514       0.00122812       0.00661464      -2.12132144
I        0.12628834       6.01373509       9.74867485       0.00156277      -0.00504782       0.00026627      -2.12133098
Cs      -2.94255090       3.08087078       9.74128135       0.00294424      -0.00306736       0.00228259      -3.51864177
Pb       0.09250411      -0.00669019      12.98840295       0.00656220      -0.00166820       0.00217865      -4.39444250
I       -3.07587852       5.43955383      12.89988030       0.00130635      -0.00364827       0.00025827      -2.11421651
I        0.88250826       3.11221873      13.18522149       0.00096446       0.00360018       0.00158712      -2.11516923
I        0.15568762      -0.22170010      16.22427620      -0.00469890      -0.00161657       0.00060776      -2.12336427
Cs       3.31406936       3.05531814      16.23181697       0.01270504      -0.00187667      -0.00317230      -3.52116764
Pb       0.05999450       0.01100067      19.46953836       0.00137868       0.00043930      -0.00075875      -4.40180802
I       -3.07210580       7.06360940      19.57600559       0.00126545      -0.00227433       0.00084457      -2.11442119
I       -0.76555466       3.13060905      19.27709830       0.00068058       0.00021238      -0.00013206      -2.11151665
I       -0.02625045       0.23778781      22.71157877       0.00404724       0.00132986      -0.00001880      -2.12510920
Cs       3.05676485       3.17459936      22.71658727      -0.00061861      -0.00317059      -0.00248997      -3.52113962
Pb       0.05507428       6.22543939      12.99076680       0.00292831       0.00089065      -0.00094466      -4.40182066
I        3.18272794       7.03394328      13.07768426       0.00448420      -0.00120670      -0.00003331      -2.11460006
I       -0.73107929       9.36389677      12.77740286      -0.00609929       0.00208996      -0.01368349      -2.11053163
I       -0.04319420       6.47043169      16.23279098       0.00224333      -0.00031355      -0.00049015      -2.12581474
Cs      -3.19574207       3.17457471      16.22537366       0.00113217      -0.00253016      -0.00147613      -3.52045727
Pb       0.05275363       6.24623021      19.47809556       0.00153970      -0.00124307      -0.00045333      -4.40193427
I        3.16942994       5.41543181      19.39453662       0.00139541      -0.00154230       0.00022141      -2.11139250
I        0.86791188       9.38027856      19.65001731       0.00162581       0.00123391      -0.00759657      -2.11692858
I        0.14572100       6.04293694      22.72301582       0.00030663       0.00115256      -0.00007576      -2.12399757
Cs      -2.93769664       3.09716204      22.71538829       0.00051762       0.00007062      -0.00038938      -3.52170801
Pb      -6.23029570       6.23631517       0.00281628       0.00002820      -0.00008539      -0.00047592      -4.40341175
I       -9.35757670      11.65478003      -0.07481172      -0.00087964       0.00056067      -0.00221600      -2.11252177
I       -5.41167508       9.35482448       0.19628400      -0.00023848      -0.00071477      -0.00137545      -2.11149949
I       -6.12909932       6.01208380       3.24764943       0.00209887      -0.00237601      -0.00023884      -2.12463611
Cs      -3.01769360       9.29266108       3.27116752      -0.00210655       0.00253282       0.00264243      -3.51985890
Pb      -6.21571321       6.24198302       6.47932912       0.00069994       0.00026239      -0.00104852      -4.39763898
I       -9.35514453      13.29875949       6.54609635      -0.00069608       0.00116692      -0.01263005      -2.10803521
I       -7.05202126       9.34672024       6.28422898      -0.00142272       0.00080096      -0.00454604      -2.10969245
I       -6.32942911       6.44784081       9.73543976      -0.00063663       0.00139215       0.00046460      -2.14435714
Cs      -3.31292742       9.33079821       9.77810275      -0.00799629       0.00166914       0.00318494      -3.50619143
Pb      -6.23701689      12.47164005      -0.00450832      -0.00063946      -0.00018209      -0.00144076      -4.40369040
I       -3.10620979      13.29728882       0.10704392       0.00143208      -0.00054032      -0.00345815      -2.11470240
I       -7.06449477      15.58986149      -0.17871670       0.00002165       0.00069705      -0.00200232      -2.11151105
I       -6.31106490      12.67917758       3.23258142       0.00291247      -0.00412219      -0.00220920      -2.11825776
Cs      -9.47709174       9.40724812       3.23683417      -0.00299859       0.00037809      -0.00391745      -3.52282012
Pb      -6.24884613      12.45942174       6.47484077      -0.00199368      -0.00098011      -0.00327865      -4.40488750
I       -3.08824026      11.63142740       6.48228829      -0.00188253      -0.00000834       0.01106912      -2.12236321
I       -5.46661076      15.58976899       6.60117188       0.00204494      -0.00238810       0.00159839      -2.11618954
I       -6.31949902      12.21404697       9.69773269      -0.01415561      -0.00652977      -0.00284186      -2.09923875
Cs      -9.22661911       9.35628836       9.74879683      -0.00742951       0.00226123       0.00468821      -3.52887088
Pb      -6.20109679       6.24814960      12.98892821       0.00401207       0.00023036       0.00082916      -4.39304811
I       -9.22945389      11.72437311      12.95264432      -0.01473630      -0.00150640       0.01362009      -2.10738993
I       -5.37140684       9.36746530      13.18534582       0.00363748      -0.00164416      -0.00081050      -2.11984003
I       -6.10415389       6.03784685      16.22381309       0.00079466      -0.00148795      -0.00047692      -2.12849957
Cs      -2.99035791       9.23901557      16.27043229       0.00077865      -0.00122663       0.00121893      -3.51490539
Pb      -6.19812538       6.25731257      19.47211773       0.00041400      -0.00010448       0.00029054      -4.40121275
I       -9.31170383      13.31549359      19.52422249       0.00343779      -0.00096326      -0.00909332      -2.11707866
I       -7.01423878       9.37872666      19.25028657       0.00240059       0.00094716      -0.00457815      -2.11381948
I       -6.28705266       6.48532341      22.70938247       0.00014236       0.00182947      -0.00030756      -2.12416774
Cs      -3.19426564       9.41488677      22.72662185      -0.00015320      -0.00248432       0.00290083      -3.52167755
Pb      -6.11384170      12.49206380      12.89973530      -0.00442331      -0.00130121      -0.00061625      -4.37915647
I       -6.97662266      15.59600992      12.77470252       0.00395282      -0.00053643      -0.00655518      -2.11312217
I       -6.11503076      12.75055919      16.18032550       0.02400471      -0.00003097      -0.00428093      -2.13896388
Cs      -9.45091394       9.41478060      16.21231004      -0.00007957      -0.00202795       0.00003916      -3.51410651
Pb      -6.18501547      12.49818145      19.44713905       0.00346841       0.00060412      -0.00312993      -4.39948529
I       -3.06744527      11.65120565      19.40481913       0.00259561      -0.00538485       0.00759371      -2.10885012
I       -5.37060184      15.61140778      19.66093087       0.00146729       0.00007402       0.00038256      -2.10705215
I       -6.10264812      12.27737525      22.69107994      -0.00346115       0.00000124      -0.00319942      -2.12426388
Cs      -9.19001220       9.34564720      22.70635327       0.00069280       0.00062774      -0.00199251      -3.52079070
Pb       6.25475957       6.22243078       0.02023265      -0.00032037       0.00034836      -0.00145721      -4.40465403
I        3.11304784      11.63082890      -0.02662036      -0.00093019      -0.00104774       0.00135562      -2.11428714
I        7.07434339       9.34064006       0.22722640       0.00015404       0.00026825      -0.00012654      -2.11045980
I        6.34630847       6.02388245       3.26480810      -0.00233055       0.00308771      -0.00015527      -2.12091762
Cs       9.50400190       9.28681833       3.28030426       0.00089933       0.00092309       0.00033879      -3.51858109
Pb       6.25224598       6.23517159       6.48831814       0.00057179      -0.00087238       0.00030296      -4.38994324
I        3.09445692      13.29859425       6.71411221      -0.00117256       0.00164133       0.00775228      -2.12217534
I        5.43440346       9.34896899       6.32508428      -0.00050004      -0.00112500       0.00305170      -2.11882693
I        6.24600745       6.40194702       9.75545294       0.00858971      -0.00213276       0.00100541      -2.15132207
Cs       9.29371106       9.42201172       9.76752827       0.00625351       0.00145926      -0.00090401      -3.51422548
Pb       6.24434940      12.45571894       0.03949810      -0.00049752      -0.00001087       0.00047954      -4.40194917
I        9.36481067      13.27437141       0.12186604      -0.00058481      -0.00053431      -0.00154278      -2.11274731
I        5.42082696      15.57320964      -0.15483869      -0.00041714      -0.00011128      -0.00115474      -2.11118907
I        6.13893947      12.68587851       3.28959258      -0.00149430       0.00129636       0.00103749      -2.12791836
Cs       3.02286032       9.36322466       3.26759494      -0.00100634      -0.00230756       0.00109129      -3.51929182
Pb       6.25256230      12.46569439       6.53385844      -0.00252819      -0.00047931       0.00182031      -4.39794499
I        9.36320502      11.63823752       6.44065088      -0.00232938      -0.00002468       0.00026781      -2.11513811
I        7.06136410      15.57872740       6.74319870       0.00139400      -0.00025233       0.00305671      -2.11495185
I        6.37308021      12.24971680       9.77171835       0.00120737      -0.00165489       0.00192408      -2.11875939
Cs       3.38054355       9.18091856       9.74714473       0.00379570      -0.00089083       0.00711974      -3.48841637
Pb       6.30395270       6.22571875      13.02147665       0.00290859      -0.00083178      -0.00005207      -4.39450598
I        3.17640294      11.60609429      12.88975826      -0.00815063       0.00255325       0.00539647      -2.12535793
I        7.12891700       9.34633306      13.18934381       0.00088521      -0.00107444       0.00004690      -2.11575598
I        6.38135790       6.00414335      16.24661498      -0.00046249      -0.00259385      -0.00204590      -2.11927003
Cs       9.53244233       9.30062224      16.26405337       0.00489799       0.00100261       0.00098720      -3.52099520
Pb       6.29207473       6.23667956      19.49017908       0.00103071       0.00059284      -0.00205083      -4.40582258
I        3.15000472      13.30741983      19.54660010      -0.00110988       0.00005613      -0.00889122      -2.11723679
I        5.46579103       9.35632921      19.29766711      -0.00159017       0.00019284      -0.00269731      -2.11147010
I        6.20733292       6.46340321      22.72956972       0.00181613       0.00115646      -0.00139541      -2.12401944
Cs       9.29282881       9.40563405      22.73698109      -0.00144347      -0.00045667       0.00002590      -3.52175027
Pb       6.32298165      12.46768216      13.01270892      -0.00625213      -0.00450658       0.00082633      -4.39758223
I        9.44000222      13.27942828      13.09682488      -0.00122199      -0.00301100      -0.00018461      -2.11641359
I        5.47637626      15.58099442      12.85058094       0.00595037      -0.00136332       0.00476472      -2.11559558
I        6.18589455      12.69015424      16.25129094       0.00354667      -0.00184672      -0.00040157      -2.12199014
Cs       3.04932474       9.38061260      16.24185240      -0.00200124       0.00165914      -0.00439397      -3.51387286
Pb       6.28264104      12.47455812      19.49554871       0.00073704      -0.00050221       0.00024694      -4.40205479
I        9.40318554      11.65119432      19.41767495       0.00049752       0.00193729       0.00282477      -2.11314714
I        7.09702757      15.59496693      19.69676181      -0.00086131      -0.00019495       0.00038059      -2.11170840
I        6.36344306      12.25620705      22.74251034      -0.00375012      -0.00040356       0.00054493      -2.12491697
Cs       3.29562655       9.32352944      22.73096486      -0.00086587       0.00090933      -0.00156105      -3.52115995
Pb       0.00321453      12.46972176       0.00561100       0.00016035       0.00026409      -0.00664061      -4.37170178
I       -3.12484150      17.88082135      -0.05073174      -0.00003689       0.00029685       0.00033398      -2.11171472
I        0.83002485      15.57404008       0.22770004       0.00016904      -0.00057073       0.00059285      -2.11326802
I        0.11716956      12.28196071       3.39831020      -0.00078172       0.00096638      -0.00608900      -2.14625084
Cs       3.26348492      15.53224116       3.28208869       0.00012238      -0.00266539       0.00140752      -3.51996791
Pb       0.00785779      12.45181370       6.42586392      -0.00000287       0.00047903       0.00241379      -4.17132246
I       -3.11099670      19.50779396       6.61764276       0.00041851      -0.00018831      -0.00040885      -2.12307721
I       -0.81371460      15.55616959       6.37445511      -0.00391370       0.00031016       0.00372702      -2.12836385
I       -2.89816543      13.14649048      12.22726300      -0.06003165       0.03916160       0.08264954      -2.12227589
Cs       3.21492527      15.81474037       9.75113114       0.01201378       0.00955818       0.00013856      -3.46921223
Pb      -0.00242316      18.69867639       0.02870257      -0.00014018       0.00014967      -0.00028023      -4.40294009
I        3.11809748      19.52162403       0.11651909      -0.00027306      -0.00040217      -0.00202924      -2.11120957
I       -0.82856500      21.81459058      -0.15803306       0.00032191      -0.00029035      -0.00236006      -2.11223316
I       -0.09685734      18.90506597       3.27789013      -0.00120170       0.00073958       0.00013833      -2.12470609
Cs      -3.22951052      15.64618170       3.25985331       0.00103481       0.00063046      -0.00084305      -3.52075851
Pb       0.02058120      18.71281453       6.51507080      -0.00011161      -0.00079718      -0.00017376      -4.39343214
I        3.13005008      17.88079150       6.41338593       0.00039985       0.00064015      -0.00392292      -2.11581993
I        0.81933048      21.81908320       6.71545670      -0.00123404       0.00002303      -0.00171954      -2.11336523
I        0.12353036      18.48752716       9.76146752       0.00208689       0.00345530      -0.00048936      -2.13102293
Cs      -3.13082361      15.99398301       9.59419792      -0.00347000       0.00238529      -0.00128813      -3.47057253
Pb       0.10427410      12.44955689      13.06055427      -0.00336078       0.00065562      -0.00804915      -4.14381135
I       -3.08081397      17.83237798      12.98250082       0.00240063       0.01010511       0.00858160      -2.12764305
I        0.90284329      15.55345901      13.13303834       0.00501985       0.00077016      -0.00960318      -2.11925054
I       -0.02939186      12.31217003      16.10358617      -0.02099093       0.00738375      -0.01034267      -2.15973723
Cs       3.28717355      15.57487330      16.25711374      -0.00122723       0.00169368      -0.00502969      -3.51590270
Pb       0.03223302      12.49304072      19.51786294      -0.00014023       0.00015978      -0.00367549      -4.36873400
I       -3.08904827      19.54604433      19.56434047       0.00073670       0.00262280      -0.00087115      -2.10975546
I       -0.80112428      15.59228733      19.28275324      -0.00072093      -0.00108759       0.00178588      -2.11118495
I       -0.04019311      12.69874910      22.73159713       0.00542264      -0.00305056      -0.00414169      -2.13902020
Cs       3.05764470      15.65501801      22.73040747      -0.00078785      -0.00245069      -0.00140562      -3.52098644
Pb       0.02939065      18.69788749      13.00955833       0.00473393      -0.00186207      -0.00026728      -4.39633852
I        3.14493614      19.53067926      13.08545161       0.00602042      -0.00248574       0.00045398      -2.11728448
I       -0.77256177      21.81138754      12.81725339       0.00247958      -0.00247224       0.00021371      -2.11723816
I       -0.06180854      18.90547930      16.24624443       0.00844190      -0.00140094       0.00007789      -2.12096220
Cs      -3.20573166      15.58554234      16.20162478       0.00781528      -0.01561129      -0.01120625      -3.49586672
Pb       0.02759899      18.71581853      19.49315838       0.00042577       0.00036594      -0.00044678      -4.40424544
I        3.15070727      17.89383766      19.41799075       0.00031657      -0.00027812       0.00185772      -2.11251575
I        0.84809135      21.83334181      19.68630833       0.00101817      -0.00033387       0.00016088      -2.11230147
I        0.12548919      18.49142856      22.73607053      -0.00162251      -0.00139159      -0.00067428      -2.12373424
Cs      -2.96804279      15.57950261      22.73151128       0.00018316      -0.00024268       0.00041268      -3.52237380
159
Lattice="12.468885909578862 12.45567328789723 0.03660330624248233 -12.500938529614729 12.48755672392219 -0.009239974293740398 0.04511830023029706 0.02729054207635215 25.947711814671685" Properties=species:S:1:pos:R:3:forces:R:3:energies:R:1 energy=-454.03814697265625 stress="-0.00011947041639359668 9.201464126817882e-05 6.2812767282594e-05 9.201464126817882e-05 -9.0046291006729e-05 2.6529985916567966e-05 6.2812767282594e-05 2.6529985916567966e-05 0.0006023940513841808" free_energy=-454.03814697265625 pbc="T T T"
Pb       0.02027566      -0.00680977       0.01036822      -0.00025885      -0.00006526      -0.00098356      -4.40362471
I       -3.10792363       5.41178207      -0.06757992       0.00024742      -0.00192592      -0.00015526      -2.11118859
I        0.83945578       3.11362585       0.20300131      -0.00009511       0.00140686       0.00349228      -2.11144841
I        0.12462400      -0.22551698       3.25633036      -0.00371241      -0.00041621       0.00211865      -2.12411076
Cs       3.25854753       3.05276598       3.26682897       0.00018884       0.00134593      -0.00264352      -3.52088070
Pb       0.02894025      -0.00355557       6.49712222       0.00036809      -0.00073658      -0.00161428      -4.39741993
I       -3.09776873       7.05738355       6.58047674       0.00019084      -0.00794728      -0.00823886      -2.11732620
I       -0.79805262       3.11995856       6.30722779       0.00448024      -0.00013773      -0.00119768      -2.11634856
I       -0.06035589       0.22216621       9.74002141       0.00384966      -0.00109825       0.00072751      -2.12601840
Cs       3.03006840       3.16943011       9.74504616      -0.00362262      -0.00499432       0.00399204      -3.51981771
Pb       0.01464464       6.22980745       0.01839095      -0.00019980      -0.00051730       0.00067644      -4.40283805
I        3.13568102       7.05003944       0.10104039      -0.00071458       0.00091395      -0.00070905      -2.11142063
I       -0.81452141       9.35658264      -0.14450086      -0.00452622       0.00182756      -0.00128481      -2.11206144
I       -0.07454795       6.46518882       3.26561866       0.00488483       0.00225474       0.00003347      -2.12462085
Cs      -3.22640080       3.15843225       3.25029626       0.00027916      -0.00255063      -0.00232442      -3.51950872
Pb       0.02092555       6.22917515       6.50571443       0.00338159       0.00177568      -0.00090101      -4.39761060
I        3.14241880       5.41061230       6.42876384       0.00123340       0.00111014       0.00153405      -2.11498809
I        0.84278408       9.38062962       6.76067016       0.00400503      -0.00787903       0.00030202      -2.12010187
I        0.12535948       6.03062419       9.74623610      -0.00308186      -0.00752590      -0.00013904      -2.12078762
Cs      -2.95379919       3.08066426       9.73801535       0.00288958      -0.00273885       0.00220996      -3.51943523
Pb       0.04643718       0.00754857      12.98420993       0.00050357      -0.00073775       0.00152138      -4.39833379
I       -3.08339587       5.43704663      12.89366360      -0.00079043      -0.00063325      -0.00123655      -2.11373663
I        0.86301880       3.13420191      13.17391208      -0.00165425       0.00017490       0.00394535      -2.11526245
I        0.14798103      -0.21153240      16.22594649      -0.00241393       0.00012581      -0.00339284      -2.12408286
Cs       3.28533079       3.06200988      16.24363156       0.00116348       0.00057963      -0.00487695      -3.51934719
Pb       0.05466452       0.01180463      19.47091702       0.00014869       0.00023896       0.00094383      -4.40276474
I       -3.07430493       7.07533078      19.56132704       0.00090844      -0.00122880       0.00034351      -2.11311871
I       -0.77231448       3.13130951      19.27768802       0.00281121       0.00187883      -0.00125039      -2.11270154
I       -0.03857421       0.23633866      22.71388506       0.00325324      -0.00020216       0.00068494      -2.12331921
Cs       3.06222277       3.18370720      22.71706000      -0.00099549      -0.00236884       0.00326716      -3.52197021
Pb       0.04101688       6.24395209      12.98623064      -0.00262539       0.00206598      -0.00025992      -4.39794725
I        3.15959243       7.06638729      13.07344421      -0.00020697      -0.00325125       0.00297083      -2.11762393
I       -0.79127063       9.39523342      12.73198463      -0.00447939      -0.00659995      -0.00536272      -2.12066114
I       -0.05583191       6.48084198      16.22840416       0.00128789       0.00293986      -0.00201542      -2.12619245
Cs      -3.20009912       3.17602296      16.22844410       0.00139784      -0.00146238      -0.00442246      -3.52020085
Pb       0.04693261       6.24866882      19.47576423       0.00036524      -0.00014393      -0.00090942      -4.40173554
I        3.16672956       5.41807381      19.39272238      -0.00064340       0.00105899      -0.00004195      -2.11223233
I        0.86782508       9.37673086      19.65117274       0.00188511       0.00180183       0.00076867      -2.11374092
I        0.14982630       6.03746878      22.72017779      -0.00292228       0.00468705       0.00013015      -2.12483573
Cs      -2.93842270       3.09857617      22.71265104       0.00006414      -0.00026259       0.00250501      -3.52160048
Pb      -6.22988769       6.23731844       0.00236593      -0.00025907      -0.00041460      -0.00055329      -4.40303797
I       -9.35776769      11.65407766      -0.07177531       0.00132457      -0.00086495       0.00005733      -2.11178923
I       -5.41014821       9.35476372       0.19604659       0.00036395       0.00080230       0.00350935      -2.11125618
I       -6.12537201       6.01850353       3.25044328      -0.00263635       0.00022906      -0.00102636      -2.12713349
Cs      -3.01704237       9.27861685       3.27150745      -0.00148425       0.00910362       0.00051560      -3.51867884
Pb      -6.21854970       6.24211679       6.48271353      -0.00035545      -0.00090608      -0.00335306      -4.39417994
I       -9.34413472      13.30516947       6.58524246       0.00044686      -0.00572671      -0.00157740      -2.11602139
I       -7.03752105       9.36207740       6.30927020      -0.00037716      -0.00301010      -0.00122874      -2.11502463
I       -6.32205241       6.45541888       9.73519147      -0.00330081      -0.00563924       0.00057406      -2.14566761
Cs      -3.34216275       9.27165826       9.75145526      -0.00337879      -0.00621456       0.00524501      -3.48406345
Pb      -6.23660723      12.47220945       0.01281522      -0.00039968       0.00019870      -0.00007320      -4.40320534
I       -3.10787050      13.29448461       0.10877099       0.00218539       0.00444365       0.00152772      -2.11166650
I       -7.06206936      15.58957358      -0.17192512      -0.00222153      -0.00062587      -0.00346304      -2.11044961
I       -6.31393975      12.69786951       3.26070444       0.00574478      -0.00335504      -0.00143016      -2.12442321
Cs      -9.47193926       9.40744506       3.24721441      -0.00031706       0.00011544      -0.00245012      -3.51954198
Pb      -6.23112953      12.48280507       6.50377093       0.00198239      -0.00486750      -0.00243464      -4.39859223
I       -3.07684386      11.63451211       6.48429893      -0.00830758      -0.00662448       0.00078141      -2.11836910
I       -5.41121863      15.59679824       6.68910630      -0.01020062      -0.00142962      -0.01593586      -2.11447459
I       -6.09971033      12.26791035       9.74098330      -0.01475381      -0.00125609      -0.00084062      -2.11732090
Cs      -9.21469361       9.33674083       9.73429348      -0.00473602       0.00452555       0.00239497      -3.51730120
Pb      -6.20647761       6.25041878      12.98946022       0.00088824       0.00095988       0.00331410      -4.39476347
I       -9.32477259      11.67055774      12.89810189       0.00145608       0.00275477       0.00141541      -2.11564618
I       -5.38212055       9.36766208      13.16552105      -0.00418490       0.00161689       0.01062869      -2.11864758
I       -6.10240107       6.03282187      16.22248626      -0.00219915       0.00215762      -0.00027787      -2.12708873
Cs      -2.99309724       9.28347969      16.24004625       0.00299873       0.00290134      -0.00494708      -3.51724362
Pb      -6.19687005       6.25536078      19.46955903       0.00021070       0.00026160       0.00059560      -4.40217847
I       -9.32144746      13.31762630      19.55331670       0.00144921      -0.00097243      -0.00194236      -2.11300254
I       -7.02210284       9.37302647      19.27080021       0.00155864       0.00086922      -0.00254979      -2.11208981
I       -6.28974144       6.48050486      22.70921319       0.00253793      -0.00009897       0.00069606      -2.12483150
Cs      -3.19462591       9.41744330      22.71604885       0.00202979      -0.00174818       0.00508917      -3.52152991
Pb      -6.20913248      12.48368315      12.97635246       0.00295641       0.00324244      -0.00035284      -4.39845091
I       -7.02126309      15.60063987      12.78445644      -0.00221878       0.00148987      -0.00229291      -2.11218989
I       -6.28430133      12.71387590      16.22263028       0.01015491       0.00134873      -0.00169222      -2.12762529
Cs      -9.45558603       9.41435832      16.22130574      -0.00131995      -0.00112884      -0.00472801      -3.51898789
Pb      -6.20083375      12.49163701      19.47167964      -0.00062348       0.00012560      -0.00039368      -4.40214747
I       -3.07358464      11.66059899      19.37807842       0.00147625      -0.00184267       0.00253961      -2.11298227
I       -5.38282139      15.60976982      19.67071919      -0.00119556      -0.00096640       0.00027151      -2.11204284
I       -6.09516407      12.27252401      22.71520051      -0.00161734       0.00118686       0.00000825      -2.12429255
Cs      -9.18899433       9.34247681      22.70792397      -0.00130226       0.00106287       0.00230745      -3.52162892
Pb       6.25584482       6.22095998       0.02567852       0.00003537      -0.00005736      -0.00058950      -4.40366358
I        3.11504465      11.63739153      -0.02948067      -0.00187413      -0.00450381      -0.00133907      -2.11257565
I        7.07320469       9.34013780       0.22337882       0.00130562       0.00034338       0.00472212      -2.11071974
I        6.35757703       6.00479823       3.27303901      -0.00419100       0.00322409      -0.00126061      -2.12596899
Cs       9.49739173       9.27548404       3.28715885       0.00229111       0.00155593      -0.00184482      -3.51925498
Pb       6.26527859       6.22473557       6.50666128      -0.00007557       0.00134450      -0.00332055      -4.39568698
I        3.09594407      13.29336689       6.69832582       0.00664883       0.00343606       0.00278235      -2.12361360
I        5.43313961       9.34118984       6.33068395       0.00529343       0.00137374      -0.00305214      -2.11954939
I        6.20742268       6.41719711       9.75869508       0.01476455      -0.01114961       0.00083503      -2.13832080
Cs       9.27341493       9.40838095       9.76069153       0.00302762       0.00155476       0.00348143      -3.51916814
Pb       6.24591750      12.45707879       0.03741705       0.00050614      -0.00049188       0.00094887      -4.40271050
I        9.36642291      13.27669261       0.12326068      -0.00137192       0.00051534       0.00142162      -2.11165702
I        5.42045025      15.57449644      -0.14949939      -0.00117678      -0.00101007      -0.00312462      -2.11137140
I        6.14162043      12.68334795       3.28691222      -0.00270708       0.00025261       0.00124703      -2.12725365
Cs       3.03229862       9.36441647       3.27081902      -0.00461857      -0.00099203      -0.00070674      -3.51771641
Pb       6.25424145      12.45737633       6.52980547      -0.00290202       0.00292717       0.00077444      -4.39677447
I        9.36734901      11.63285853       6.44126499      -0.00104126       0.00490183      -0.00065033      -2.11692089
I        7.05967469      15.57741856       6.73669318      -0.00207000       0.00092567       0.00239947      -2.11444765
I        6.34427734      12.24708362       9.76708297       0.00684398      -0.00020285       0.00175910      -2.11979526
Cs       3.37883307       9.20488203       9.75297750      -0.00206713       0.00102565       0.00188615      -3.49332225
Pb       6.27844343       6.23537944      13.01139036      -0.00058361      -0.00072912       0.00317223      -4.39699399
I        3.12292749      11.64731728      12.86801768       0.00801601      -0.00791903       0.00175039      -2.11812216
I        7.09092825       9.35568086      13.18714918       0.00251756      -0.00254941       0.00298428      -2.11357325
I        6.38017002       6.01810955      16.24596162      -0.00558783       0.00099758      -0.00000847      -2.12583196
Cs       9.51504833       9.29428220      16.26255388       0.00181801       0.00253062      -0.00429388      -3.52067339
Pb       6.28892433       6.23909337      19.49221614       0.00016385      -0.00013394       0.00045384      -4.40285677
I        3.15159666      13.30363801      19.56083739      -0.00172115       0.00228259      -0.00235744      -2.11318898
I        5.46127502       9.35594690      19.29921282       0.00220811       0.00119329      -0.00013522      -2.11223990
I        6.19671452       6.46365152      22.73223982       0.00390597      -0.00067554       0.00069140      -2.12416470
Cs       9.29658621       9.41148210      22.73566569       0.00008302      -0.00134039       0.00388354      -3.52196145
Pb       6.27825512      12.47442515      13.00786764      -0.00151293      -0.00458089       0.00195729      -4.39911258
I        9.38993419      13.29365401      13.09314262       0.00044465      -0.00261138       0.00113029      -2.11502248
I        5.45079703      15.58883165      12.83491093       0.00736408      -0.00072351       0.00981923      -2.11448216
I        6.16988654      12.69400118      16.24942824       0.00010828      -0.00307948      -0.00003003      -2.12384820
Cs       3.05502276       9.38275175      16.24180655       0.00027053       0.00530779      -0.00694822      -3.51800108
Pb       6.28145204      12.47413276      19.49533607       0.00023187       0.00032249      -0.00015815      -4.40216982
I        9.40042176      11.64497024      19.41236467      -0.00176582       0.00251758       0.00074556      -2.11296064
I        7.09895504      15.59304074      19.69421230      -0.00059012      -0.00033732       0.00173368      -2.11189032
I        6.37613914      12.25629866      22.74061510      -0.00582172       0.00109521       0.00099450      -2.12478834
Cs       3.30034667       9.32089320      22.72981665      -0.00344789       0.00232344       0.00172869      -3.52175367
Pb       0.00195222      12.46995204      -0.00928179       0.00013472      -0.00023980       0.00751702      -4.37698770
I       -3.12499352      17.88030530      -0.05420728       0.00092163      -0.00136912       0.00123365      -2.11133742
I        0.82435374      15.57554747       0.22273661       0.00440518      -0.00200560       0.00171022      -2.11117041
I        0.11661695      12.28370142       3.37531018      -0.00124154       0.00230466       0.00800326      -2.14599216
Cs       3.26586750      15.54213497       3.28227029      -0.00204969      -0.00307927      -0.00077222      -3.51809937
Pb       0.01300474      12.45177390       6.40272845      -0.00087701       0.00138224       0.01188050      -4.17022830
I       -3.10865158      19.51495967       6.61569293      -0.00239895       0.00140955      -0.00253307      -2.11367065
I       -0.83079264      15.54646228       6.42318789      -0.00429054       0.00683589       0.00092811      -2.12218970
I       -3.04878038      13.31987766      12.96389730      -0.00616495       0.00570302      -0.00208257      -2.12296724
Cs       3.18227188      15.78890339       9.74577342       0.01053357       0.00786946       0.00323236      -3.47386211
Pb      -0.00308324      18.69927649       0.03179238       0.00001006       0.00040734       0.00001561      -4.40331823
I        3.11853682      19.52016358       0.11972148      -0.00050217       0.00176959       0.00174300      -2.11092633
I       -0.82857483      21.81592798      -0.15197891      -0.00153600      -0.00134604      -0.00206769      -2.11138415
I       -0.09492806      18.90551491       3.28181752      -0.00004963      -0.00751740      -0.00017154      -2.12641591
Cs      -3.24488422      15.65168176       3.27474775       0.01048902      -0.00172076       0.00165170      -3.52035052
Pb       0.01249312      18.70333622       6.52828449      -0.00400070      -0.00280439      -0.00071490      -4.39803016
I        3.13055911      17.87113434       6.43545046      -0.00232418       0.00978100      -0.01389563      -2.11899078
I        0.82515135      21.81501450       6.72035518      -0.00596365      -0.00146019       0.00034656      -2.11635107
I        0.10449753      18.45420798       9.76119181      -0.00151118       0.01305741       0.00105441      -2.11646497
Cs      -3.12018484      15.69731491       9.75481731      -0.01022013       0.01057703       0.00223987      -3.46727484
Pb       0.04294335      12.46817586      13.10624154      -0.00071396       0.00156591      -0.01229352      -4.17107046
I       -3.10334461      17.89557578      12.92410200       0.00183524       0.00696998       0.01792443      -2.11475056
I        0.86392774      15.56241475      13.10256155       0.00895631       0.00702293       0.00129723      -2.11772281
I        0.09964931      12.28236206      16.13427365      -0.00391794       0.00036303      -0.00833482      -2.14600044
Cs       3.27628144      15.56106162      16.24673758      -0.00748428       0.00370390      -0.00802062      -3.51969784
Pb       0.03626954      12.48869756      19.51732534       0.00017352      -0.00002833      -0.00719415      -4.37635356
I       -3.08926286      19.54508684      19.57264973       0.00069987       0.00006296      -0.00091419      -2.11199236
I       -0.78999888      15.59330135      19.28593512      -0.00190426      -0.00147450      -0.00045914      -2.11248165
I       -0.04920361      12.69476855      22.72733080       0.00279475      -0.00062585       0.00101798      -2.13859677
Cs       3.05806748      15.66396246      22.72772515       0.00031847      -0.00347438       0.00208050      -3.52133042
Pb       0.01491028      18.71597150      12.99658438       0.00426387      -0.00236527       0.00173446      -4.39914346
I        3.13799405      19.52270663      13.07895141       0.00338211       0.00317474       0.00113735      -2.11362880
I       -0.80505565      21.82615681      12.81487656       0.00386094      -0.00096805      -0.00267574      -2.11468267
I       -0.07013515      18.92283629      16.24261840       0.00537622      -0.00540825       0.00000425      -2.12518805
Cs      -3.23574558      15.65209370      16.23333492       0.00277609      -0.01033935      -0.00787558      -3.51970303
Pb       0.03193417      18.71836469      19.49102936      -0.00040023       0.00058015       0.00012228      -4.40241617
I        3.15204617      17.88743990      19.40898606      -0.00120249       0.00195848      -0.00045746      -2.11278731
I        0.85006096      21.83588029      19.68810882      -0.00121122      -0.00124344       0.00067635      -2.11258072
I        0.13346804      18.49511460      22.73494749      -0.00302600       0.00045462       0.00049682      -2.12403679
Cs      -2.96490090      15.58004443      22.72711701       0.00011729      -0.00081365       0.00279701      -3.52136379
