159
Lattice="12.468877150473974 12.455658885840549 0.03660578085816481 -12.50093584829824 12.487541340136369 -0.009235160890552896 0.04511834328209048 0.027282498203389086 25.94770021635299" Properties=species:S:1:pos:R:3:forces_eV_per_A:R:3 energy_eV=-125820.37508063477 fmax_eV_per_A=0.08103701916547051 source=q0_final_ns1.out.gz ionic_step=0 tot_charge=0.0 pbc="T T T"
Pb       0.01949253      -0.00711277       0.00961188      -0.00218158      -0.00045097      -0.00630229
I       -3.10790441       5.41453937      -0.05513699      -0.00293106      -0.00086415       0.00102844
I        0.83452525       3.11271799       0.18961136       0.00456602       0.00931022       0.00296577
I        0.11958702      -0.23267127       3.25447191      -0.00538826       0.00198026       0.01388216
Cs       3.26802193       3.05545734       3.26090764       0.00454520      -0.00003728      -0.00342677
Pb       0.02827550      -0.00316074       6.49568755      -0.00656120       0.00309329      -0.00415593
I       -3.09791668       7.03841392       6.55746586      -0.00133312      -0.01212584      -0.01072536
I       -0.78961998       3.11257152       6.32619766      -0.00723457       0.00867825      -0.01295322
I       -0.05384584       0.22639065       9.74072629       0.00715255      -0.00593025       0.00046306
Cs       3.02115479       3.16302739       9.75155047      -0.00462901      -0.00635422      -0.00082610
Pb       0.01509026       6.22446932       0.01374312      -0.00520443       0.01634759       0.00106418
I        3.13503667       7.04914272       0.09311709       0.00434362      -0.00660182      -0.00908577
I       -0.81830939       9.35957407      -0.11738058      -0.00843502      -0.01893206      -0.01240994
I       -0.06600271       6.48972706       3.26456257       0.00942952       0.00210496       0.00820491
Cs      -3.23385116       3.15578077       3.24753347       0.00037050      -0.00411762       0.00065460
Pb       0.02890732       6.21838555       6.49923808       0.00315577       0.03336701       0.00885308
I        3.14456973       5.41361147       6.44135277       0.00633108      -0.00606858       0.00251634
I        0.84661633       9.36810502       6.79222894      -0.01182348       0.02541819      -0.01639130
I        0.12192926       6.01432661       9.74599181      -0.00628583      -0.01394464      -0.00097291
Cs      -2.94505631       3.07945731       9.73959299       0.00390988      -0.00141256      -0.00366022
Pb       0.04693954       0.00800649      12.98571739       0.00144959       0.00673758       0.00382709
I       -3.08572733       5.43875051      12.89720093      -0.00415542      -0.00251685       0.00080347
I        0.85768982       3.12829605      13.15780967       0.00507999       0.00317737       0.01185947
I        0.14292939      -0.21867638      16.22681330      -0.00546385       0.00167713      -0.01423928
Cs       3.29420937       3.06373969      16.23825449       0.00227851       0.00143853       0.00476708
Pb       0.05503407       0.01266170      19.47174407       0.00171184       0.00131692       0.00643419
I       -3.07297237       7.07097757      19.54997461      -0.00852886      -0.00376050       0.00315834
I       -0.76421413       3.13055982      19.29323569      -0.00699134       0.01142933      -0.00416313
I       -0.03302930       0.24305508      22.71454950       0.00579964      -0.00260993       0.00018718
Cs       3.05783681       3.18231072      22.72212824      -0.00415182      -0.00345402      -0.00164551
Pb       0.03432875       6.23376687      12.99125928      -0.00215896       0.03700923      -0.00911250
I        3.15975100       7.05656255      13.07160134      -0.00086800      -0.01107169       0.00298299
I       -0.79570408       9.38500282      12.69605236       0.01299410       0.02343741       0.01201965
I       -0.05280585       6.50539506      16.22589021       0.00469946       0.00144573      -0.00685482
Cs      -3.20751355       3.17395434      16.22503083      -0.00018923      -0.00468789       0.00691318
Pb       0.04726980       6.24467323      19.48015613       0.00605855       0.01795453      -0.00295343
I        3.16565978       5.42430329      19.39814011       0.00672549      -0.00220601       0.00213247
I        0.86751347       9.38073118      19.62511525       0.00912176      -0.02338007       0.01449640
I        0.14533954       6.04196137      22.71973199      -0.00541166       0.00665350       0.00129429
Cs      -2.93461974       3.10166944      22.71462950       0.00252765       0.00084255      -0.00246157
Pb      -6.23028861       6.23736121      -0.00347322      -0.00052245      -0.00104078      -0.00326016
I       -9.35983440      11.65634021      -0.05940148       0.01294473      -0.00215767      -0.00001903
I       -5.41365772       9.35550230       0.18209867      -0.00437550      -0.00671778      -0.00185608
I       -6.12739425       6.01196626       3.24542860      -0.00275442       0.00559472       0.00566440
Cs      -3.03979725       9.27059690       3.26619321      -0.00654012       0.00819179       0.00237596
Pb      -6.21753692       6.24167142       6.46804028      -0.00066334      -0.00395256      -0.00139302
I       -9.35165414      13.29670967       6.57855993       0.01004427       0.00267061      -0.00990260
I       -7.03542800       9.35603826       6.32845347      -0.01061454       0.00030493      -0.00537001
I       -6.33571323       6.44760268       9.73536857      -0.00702168      -0.01563282       0.00008150
Cs      -3.40251546       9.21578871       9.75930348      -0.00584103      -0.00642776      -0.00197461
Pb      -6.24160750      12.47207486       0.00671247       0.01390170       0.00426186      -0.00562069
I       -3.10489665      13.29867571       0.10901450      -0.02089459       0.00387028      -0.00973934
I       -7.05908586      15.58808195      -0.15406484      -0.00414385       0.00739784      -0.00461590
I       -6.29432241      12.70188753       3.25484581       0.00960847      -0.00931022       0.01148769
Cs      -9.47653292       9.40359448       3.24318581      -0.00276214      -0.00374096      -0.00163445
Pb      -6.24649995      12.47384553       6.49002137       0.03429389      -0.00203271       0.01570276
I       -3.09214023      11.62001416       6.54377551       0.03283068       0.00418704      -0.01021037
I       -5.43652366      15.59512402       6.64326905      -0.01267245      -0.00555333      -0.01788382
I       -6.11183543      12.25499143       9.74085477      -0.02915220       0.00250014      -0.00201600
Cs      -9.21328474       9.34630983       9.73651599      -0.00390602       0.00819436      -0.00331467
Pb      -6.20544902       6.25122173      13.00408128       0.00426829       0.00139405       0.00082610
I       -9.32987922      11.67481563      12.90690520       0.00641619      -0.00241247       0.01082306
I       -5.39668518       9.36953705      13.16500891      -0.01143473      -0.00066154       0.01486895
I       -6.10501711       6.02849613      16.22642521      -0.00314574       0.00768554      -0.00618736
Cs      -3.00580482       9.25965554      16.24194341      -0.00003548      -0.00260941       0.00477762
Pb      -6.19724824       6.25639076      19.47574324       0.00051191       0.00075308       0.00404589
I       -9.32263249      13.31277315      19.54018092       0.00724871       0.00390011      -0.00106624
I       -7.01300429       9.37423957      19.28417435      -0.00551990      -0.00512858      -0.00473906
I       -6.28629846       6.48777857      22.70978920       0.00409114      -0.00506199       0.00010953
Cs      -3.21021378       9.40034700      22.72487226       0.00006273      -0.00665710       0.00065769
Pb      -6.22450317      12.49012865      12.98562910       0.03972123       0.00166530      -0.01520088
I       -7.02263876      15.60345267      12.79738783      -0.00584823       0.00409011      -0.00141282
I       -6.25923529      12.72420223      16.22297096       0.01178054       0.00002365      -0.00816994
Cs      -9.46176632       9.40897754      16.21907039      -0.00086852      -0.00176866       0.00936936
Pb      -6.20383276      12.49157843      19.47675465       0.01756732      -0.00376230       0.00151232
I       -3.07129460      11.65955422      19.38384236      -0.01998030      -0.00441227       0.01299487
I       -5.38692478      15.60922106      19.64812014       0.00121639       0.00474831       0.00422587
I       -6.09063670      12.26590929      22.71455680      -0.00354941       0.00411814       0.00166530
Cs      -9.18374964       9.34429809      22.70966881      -0.00218107       0.00547722      -0.00313880
Pb       6.25583513       6.22134254       0.02021378       0.00007225       0.00036433      -0.00374301
I        3.11144016      11.63351192      -0.01459622       0.02500115      -0.00386077      -0.01071533
I        7.06798042       9.34108972       0.21209990       0.00338820      -0.00756187       0.00351855
I        6.35067786       6.00218329       3.26863959      -0.01016794       0.00987715       0.00547979
Cs       9.50419123       9.27501906       3.28122342       0.00259707       0.00281664      -0.00428089
Pb       6.26428610       6.22802718       6.49368589      -0.00202680       0.00155243      -0.00257265
I        3.10499962      13.29874462       6.74058563      -0.02159547      -0.00788429      -0.00745183
I        5.44674085       9.34242438       6.34134582       0.00542580       0.00102690      -0.00976788
I        6.23972650       6.39863791       9.75978094       0.02596557      -0.02279129       0.00041909
Cs       9.27166043       9.41078297       9.76549755       0.00258833       0.00107369      -0.00169847
Pb       6.24939529      12.45594587       0.03297681      -0.01807434      -0.00525431       0.00178666
I        9.36797656      13.27467137       0.11733945      -0.01118096       0.00155449      -0.00289378
I        5.42223263      15.57297855      -0.12941094       0.00170438       0.00804601      -0.00494603
I        6.12793541      12.69097649       3.28825227       0.00094411      -0.00311052       0.00644370
Cs       3.04150081       9.33518639       3.26292577      -0.00089603      -0.00871501       0.00210342
Pb       6.26548588      12.46455249       6.52383332      -0.03796620       0.00111869       0.01125886
I        9.37214008      11.64012292       6.45030435      -0.00309484      -0.00353115      -0.00656017
I        7.05415695      15.58020578       6.72556733       0.00617219       0.00357563       0.00437216
I        6.34910210      12.23564822       9.76877999       0.01433673       0.00393173       0.00299688
Cs       3.42101362       9.16991822       9.75416513       0.00216050       0.00114774      -0.00314292
Pb       6.27564656       6.23533254      13.02420109      -0.00076208      -0.00143108       0.00258113
I        3.13693750      11.63536739      12.82833056      -0.02841326       0.01197749       0.02094781
I        7.09130654       9.35144505      13.16974074       0.00853709      -0.00479459       0.00392916
I        6.37040581       6.01197655      16.24949433      -0.01220426       0.00670287      -0.00611691
Cs       9.52126260       9.29359688      16.25783237       0.00501777      -0.00013961       0.00535869
Pb       6.28866586       6.23960217      19.49703239      -0.00018589      -0.00065820       0.00364994
I        3.14894612      13.30544796      19.54081370       0.01710786       0.00731376       0.00681574
I        5.46767841       9.35683189      19.31608924       0.00131383      -0.00360572       0.00166942
I        6.20356663       6.47016695      22.73290336       0.00951180      -0.00650438       0.00033604
Cs       9.29014767       9.40816239      22.74174945      -0.00092457       0.00002905       0.00006942
Pb       6.29174932      12.46492551      13.01785640      -0.03233882      -0.00330978      -0.01180008
I        9.39864811      13.28990664      13.08254139      -0.01205179       0.00135111       0.00665839
I        5.47247984      15.58762872      12.87367614       0.01534512      -0.00128041       0.01563411
I        6.15780806      12.69730032      16.25246723      -0.00007199      -0.00897778      -0.01017128
Cs       3.07556551       9.36894615      16.24065895       0.00746031       0.00263512       0.00353141
Pb       6.28643323      12.47412766      19.50059611      -0.01428736       0.00412971       0.00305241
I        9.40132840      11.65125504      19.41925722      -0.00976222      -0.00357486       0.00289866
I        7.09209414      15.59308070      19.67447418       0.00541783       0.00382066       0.00480179
I        6.36050553      12.24896026      22.74260812      -0.00820645       0.00372347      -0.00136114
Cs       3.31242005       9.31364149      22.73056997      -0.00261353       0.00266135      -0.00330670
Pb      -0.00061945      12.47270098      -0.06769657       0.00311129      -0.00278039       0.05940200
I       -3.12436638      17.88036087      -0.04007664      -0.00430146       0.00441921       0.00064175
I        0.82671144      15.57324298       0.21066989       0.00504553       0.01916912      -0.00697797
I        0.12481047      12.27000023       3.24576340      -0.00269606      -0.00541012       0.00532938
Cs       3.29110412      15.55451468       3.27163276       0.00230937      -0.00124184      -0.00275211
Pb       0.01880904      12.44901107       6.27367015      -0.00290406      -0.00475294       0.07634583
I       -3.11333287      19.51690993       6.60709236      -0.00224920       0.00629175      -0.00443824
I       -0.84155979      15.55756728       6.48700916       0.00020775      -0.02292627      -0.00612463
I       -3.05779262      13.33091809      12.90804222       0.01830600      -0.00613542       0.00205945
Cs       3.25513721      15.86800406       9.75056866       0.01544462       0.01913955      -0.00260838
Pb      -0.00277362      18.70243952       0.02613105       0.00433797      -0.01644581      -0.00511315
I        3.11766446      19.51746531       0.11451924       0.00499154       0.00125547      -0.00295214
I       -0.82581058      21.81719664      -0.13216687      -0.00534352      -0.00750248      -0.00465473
I       -0.09496366      18.89296497       3.27681715      -0.00108449      -0.00937476       0.01001573
Cs      -3.24820514      15.66940866       3.27240965       0.01204099       0.00278888       0.00285058
Pb       0.00556028      18.72117552       6.51519506      -0.00194992      -0.03891725       0.01940129
I        3.12735512      17.89310901       6.41835166      -0.00158149       0.01489003      -0.01898168
I        0.81575868      21.82054964       6.70578994       0.00643881      -0.00790203      -0.00335940
I        0.10205475      18.44994114       9.76149067      -0.00557210       0.02764245       0.00106367
Cs      -3.19438102      15.78260268       9.75616362      -0.02342635       0.02877373      -0.00372861
Pb       0.04077431      12.46242987      13.23631633       0.00530290      -0.00144573      -0.08085040
I       -3.10081679      17.91536865      12.96388593       0.00636939       0.01693637       0.02598511
I        0.88192848      15.57554267      13.03754163       0.00024040      -0.02916891       0.00834066
I        0.09495091      12.26095904      16.26336107      -0.00010696      -0.00596110      -0.00328690
Cs       3.28758368      15.58903772      16.24002778      -0.00725977       0.00960950      -0.00038284
Pb       0.03575654      12.49312913      19.57565522       0.00004062      -0.00406466      -0.05637041
I       -3.08773462      19.54029141      19.56108385      -0.00766472       0.00353938      -0.00042835
I       -0.78878211      15.59112510      19.29775513      -0.00787195       0.02144583       0.00381680
I       -0.04487750      12.70144965      22.72816625       0.00083175       0.00727468      -0.00077005
Cs       3.07115515      15.67568961      22.73021402       0.00488715      -0.00048542      -0.00220241
Pb       0.02286041      18.73315730      13.01160842       0.00225846      -0.03811789      -0.02043539
I        3.14462661      19.52663292      13.06826024      -0.00186302       0.00555718      -0.00014784
I       -0.79799145      21.83204130      12.82677128      -0.00320822      -0.00780458       0.00419244
I       -0.06222329      18.91393745      16.24767802       0.01191346      -0.00698852      -0.01190498
Cs      -3.25782442      15.64924868      16.23104726      -0.00195790      -0.01326895       0.00433899
Pb       0.03154601      18.72321019      19.49758580      -0.00484524      -0.01448688       0.00687719
I        3.15084749      17.89195930      19.41472552       0.00735927       0.00434851       0.00468712
I        0.84394635      21.83827600      19.66720656       0.00714870      -0.01150800       0.00580555
I        0.12810572      18.47896929      22.73544815      -0.00594053       0.00080938      -0.00056101
Cs      -2.97708649      15.59790379      22.73002143      -0.00440636       0.00447398      -0.00253845
159
Lattice="12.468877150473974 12.455658885840549 0.03660578085816481 -12.50093584829824 12.487541340136369 -0.009235160890552896 0.04511834328209048 0.027282498203389086 25.94770021635299" Properties=species:S:1:pos:R:3:forces_eV_per_A:R:3 energy_eV=-125820.37636542036 fmax_eV_per_A=0.07544752275834202 source=q0_final_ns1.out.gz ionic_step=1 tot_charge=0.0 pbc="T T T"
Pb       0.01944230      -0.00712343       0.00946077      -0.00209828      -0.00045586      -0.00654423
I       -3.10796668       5.41451199      -0.05510718      -0.00240064      -0.00143210       0.00148121
I        0.83463064       3.11291437       0.18968618       0.00441304       0.00751122       0.00337714
I        0.11946536      -0.23263155       3.25478700      -0.00499000       0.00143313       0.01298921
Cs       3.26810802       3.05543754       3.26085333       0.00288144      -0.00155732      -0.00132078
Pb       0.02812369      -0.00309396       6.49558193      -0.00637068       0.00261893      -0.00479614
I       -3.09794523       7.03812726       6.55722442      -0.00111020      -0.01226416      -0.00987458
I       -0.78978229       3.11276808       6.32590616      -0.00661673       0.00808638      -0.01191861
I       -0.05368239       0.22625695       9.74073640       0.00678103      -0.00547619       0.00040109
Cs       3.02102493       3.16284939       9.75153202      -0.00632234      -0.00865819      -0.00074871
Pb       0.01496880       6.22487145       0.01375911      -0.00513706       0.01779281       0.00033964
I        3.13513214       7.04898459       0.09291083       0.00381320      -0.00684273      -0.00850418
I       -0.81850256       9.35915512      -0.11766308      -0.00803084      -0.01684947      -0.01167769
I       -0.06578557       6.48977035       3.26475821       0.00907317       0.00160925       0.00843296
Cs      -3.23382016       3.15566490       3.24757014       0.00216076      -0.00565308       0.00236490
Pb       0.02898253       6.21917658       6.49942961       0.00323985       0.03392545       0.00752691
I        3.14470493       5.41346111       6.44141827       0.00524068      -0.00669130       0.00302747
I        0.84635530       9.36865961       6.79186120      -0.01047313       0.02198782      -0.01499030
I        0.12178344       6.01398815       9.74597044      -0.00613362      -0.01481058      -0.00085361
Cs      -2.94494225       3.07940419       9.73952022       0.00569165      -0.00301308      -0.00259656
Pb       0.04697696       0.00815792      12.98581469       0.00171904       0.00618402       0.00441896
I       -3.08581356       5.43868272      12.89721310      -0.00323805      -0.00321157       0.00026380
I        0.85780542       3.12837177      13.15807687       0.00477711       0.00326222       0.01093696
I        0.14280371      -0.21864005      16.22649053      -0.00524634       0.00142928      -0.01328849
Cs       3.29424535       3.06375129      16.23833832       0.00086749      -0.00034453       0.00250245
Pb       0.05507303       0.01269177      19.47189863       0.00161002       0.00124647       0.00670518
I       -3.07315817       7.07088054      19.55004310      -0.00735490      -0.00445598       0.00269786
I       -0.76436960       3.13080259      19.29313349      -0.00628301       0.00935676      -0.00451409
I       -0.03289702       0.24299963      22.71455246       0.00547825      -0.00213787       0.00007148
Cs       3.05772627       3.18221897      22.72209203      -0.00519389      -0.00430403      -0.00144830
Pb       0.03427788       6.23464363      12.99106041      -0.00216975       0.03757925      -0.00788712
I        3.15973170       7.05629663      13.07166463      -0.00077982      -0.01153346       0.00243586
I       -0.79541856       9.38551261      12.69632010       0.01140182       0.02014742       0.01083797
I       -0.05269729       6.50541881      16.22572559       0.00454931       0.00062452      -0.00713918
Cs      -3.20750620       3.17382624      16.22516316       0.00075848      -0.00612925       0.00449403
Pb       0.04741176       6.24511281      19.48009621       0.00602589       0.01937481      -0.00219212
I        3.16580578       5.42424201      19.39818508       0.00575799      -0.00296371       0.00171930
I        0.86772205       9.38021297      19.62544514       0.00865845      -0.02087427       0.01363250
I        0.14521362       6.04210616      22.71975992      -0.00531164       0.00572482       0.00109426
Cs      -2.93454928       3.10167595      22.71457043       0.00341597      -0.00022497      -0.00256005
Pb      -6.23030121       6.23733992      -0.00354677      -0.00054867      -0.00078624      -0.00301462
I       -9.35955881      11.65628976      -0.05939419       0.01064771      -0.00213710       0.00060241
I       -5.41376313       9.35535441       0.18205964      -0.00458351      -0.00591714      -0.00148738
I       -6.12745644       6.01209359       3.24556301      -0.00255028       0.00526202       0.00576878
Cs      -3.03995646       9.27078054       3.26626445      -0.00698415       0.00748063       0.00361343
Pb      -6.21755418       6.24158379       6.46800464      -0.00079756      -0.00353064      -0.00162648
I       -9.35142759      13.29676701       6.57833662       0.00928297       0.00223506      -0.00914824
I       -7.03567997       9.35604647       6.32833584      -0.01081895       0.00038875      -0.00468198
I       -6.33587894       6.44724817       9.73537029      -0.00707876      -0.01460130       0.00006608
Cs      -3.40265688       9.21563229       9.75926165      -0.00617528      -0.00685970      -0.00160745
Pb      -6.24126265      12.47217360       0.00657882       0.01536234       0.00414925      -0.00574667
I       -3.10535601      13.29876999       0.10879394      -0.01835356       0.00413819      -0.00907240
I       -7.05918983      15.58824329      -0.15416643      -0.00467375       0.00639356      -0.00406311
I       -6.29411168      12.70167441       3.25511332       0.00839877      -0.00885617       0.01129229
Cs      -9.47661902       9.40353180       3.24317962      -0.00446472      -0.00171390       0.00095362
Pb      -6.24568925      12.47379310       6.49037109       0.03468290      -0.00240707       0.01415470
I       -3.09141651      11.62010255       6.54354832       0.02899408       0.00338409      -0.00918707
I       -5.43682656      15.59500047       6.64285878      -0.01308357      -0.00499540      -0.01708293
I       -6.11252140      12.25504547       9.74081118      -0.02922676       0.00212142      -0.00171184
Cs      -9.21339739       9.34652254       9.73644261      -0.00558212       0.00981313      -0.00295240
Pb      -6.20535362       6.25125680      13.00410518       0.00387465       0.00157943       0.00118682
I       -9.32973518      11.67476488      12.90715069       0.00587523      -0.00193501       0.01011344
I       -5.39695710       9.36952299      13.16534846      -0.01169389      -0.00054199       0.01407833
I       -6.10508737       6.02867000      16.22627873      -0.00285187       0.00714510      -0.00627478
Cs      -3.00580930       9.25958810      16.24203843      -0.00032782      -0.00310075       0.00339129
Pb      -6.19723954       6.25640599      19.47582037       0.00024477       0.00055536       0.00260401
I       -9.32248130      13.31285866      19.54014878       0.00571068       0.00340697      -0.00163548
I       -7.01313595       9.37412808      19.28405989      -0.00567674      -0.00440404      -0.00498768
I       -6.28620621       6.48766459      22.70979132       0.00377901      -0.00466218       0.00007328
Cs      -3.21021567       9.40019066      22.72488825      -0.00020749      -0.00664913       0.00070114
Pb      -6.22356151      12.49016677      12.98528988       0.04038509       0.00158354      -0.01375643
I       -7.02278073      15.60353748      12.79735070      -0.00621333       0.00318174      -0.00172855
I       -6.25897502      12.72420634      16.22277725       0.01045128       0.00030956      -0.00830852
Cs      -9.46180587       9.40895778      16.21925722      -0.00240655      -0.00001723       0.00669181
Pb      -6.20340314      12.49149023      19.47679360       0.01891792      -0.00374533       0.00178666
I       -3.07173733      11.65944826      19.38413782      -0.01782906      -0.00459533       0.01219937
I       -5.38690490      15.60932473      19.64821340       0.00051731       0.00411377       0.00374044
I       -6.09072507      12.26600019      22.71459251      -0.00394844       0.00364711       0.00139045
Cs      -9.18381372       9.34444006      22.70959447      -0.00321182       0.00654243      -0.00318508
Pb       6.25583679       6.22135079       0.02012887       0.00006942       0.00033939      -0.00349901
I        3.11199330      11.63342155      -0.01483822       0.02224159      -0.00383249      -0.00992883
I        7.06806412       9.34092479       0.21218613       0.00371550      -0.00653600       0.00380395
I        6.35044296       6.00240930       3.26877015      -0.00984373       0.00938787       0.00562403
Cs       9.50427274       9.27510205       3.28114782       0.00424206       0.00416647      -0.00227311
Pb       6.26423935       6.22806496       6.49362042      -0.00195610       0.00165682      -0.00297580
I        3.10453060      13.29857658       6.74042349      -0.01850680      -0.00649975      -0.00640976
I        5.44687581       9.34244755       6.34112544       0.00602538       0.00095002      -0.00903280
I        6.24032774       6.39811176       9.75979096       0.02524952      -0.02203487       0.00043323
Cs       9.27174639       9.41083182       9.76546053       0.00460793       0.00297117      -0.00146656
Pb       6.24895239      12.45582263       0.03301075      -0.01953473      -0.00523554       0.00114054
I        9.36773861      13.27470458       0.11727939      -0.00919015       0.00128735      -0.00225589
I        5.42228318      15.57315449      -0.12952081       0.00254796       0.00699134      -0.00443567
I        6.12796769      12.69090270       3.28840865       0.00175426      -0.00316657       0.00684273
Cs       3.04148183       9.33497939       3.26298747      -0.00072839      -0.00889293       0.00308918
Pb       6.26458400      12.46457839       6.52408313      -0.03874730       0.00108783       0.01007281
I        9.37206767      11.64004372       6.45015991      -0.00306990      -0.00322802      -0.00577984
I        7.05431046      15.58027982       6.72567364       0.00685302       0.00277345       0.00465935
I        6.34944550      12.23573847       9.76884593       0.01485943       0.00375921       0.00263692
Cs       3.42107047       9.16993366       9.75409654       0.00264926       0.00022111      -0.00271997
Pb       6.27562845       6.23530123      13.02426515      -0.00077827      -0.00124441       0.00285418
I        3.13631365      11.63563607      12.82880684      -0.02489317       0.01095161       0.01966508
I        7.09150963       9.35134126      13.16982571       0.00873687      -0.00408163       0.00333806
I        6.37012365       6.01212826      16.24935108      -0.01183247       0.00623750      -0.00607757
Cs       9.52139802       9.29361414      16.25792936       0.00642467       0.00151052       0.00303467
Pb       6.28866381       6.23958988      19.49711134       0.00000000      -0.00040315       0.00310178
I        3.14932383      13.30562002      19.54096595       0.01515614       0.00732970       0.00617990
I        5.46771862       9.35675320      19.31612528       0.00206357      -0.00312003       0.00141334
I        6.20378586       6.47002021      22.73291011       0.00916753      -0.00601433       0.00024374
Cs       9.29013748       9.40817541      22.74175061       0.00000180       0.00101996       0.00003137
Pb       6.29098464      12.46484443      13.01759838      -0.03272218      -0.00357486      -0.01025227
I        9.39837586      13.28994080      13.08268772      -0.01117247       0.00154549       0.00584412
I        5.47284608      15.58759818      12.87403333       0.01579892      -0.00131666       0.01481547
I        6.15781486      12.69709587      16.25223006       0.00060987      -0.00845482      -0.01002319
Cs       3.07574682       9.36900218      16.24072676       0.00794291       0.00216153       0.00231219
Pb       6.28607912      12.47422369      19.50067318      -0.01576369       0.00404872       0.00348179
I        9.40112275      11.65117513      19.41931736      -0.00785421      -0.00324653       0.00225846
I        7.09222935      15.59316299      19.67457977       0.00605238       0.00321876       0.00422021
I        6.36032532      12.24904229      22.74257738      -0.00719215       0.00328433      -0.00126164
Cs       3.31236337       9.31369741      22.73049368      -0.00223249       0.00212939      -0.00319382
Pb      -0.00055052      12.47263886      -0.06634734       0.00277576      -0.00252174       0.05565565
I       -3.12446102      17.88046791      -0.04005677      -0.00378389       0.00467607       0.00102664
I        0.82683064      15.57366610       0.21051297       0.00509670       0.01697417      -0.00641182
I        0.12474599      12.26987692       3.24593932      -0.00278682      -0.00510338       0.00940124
Cs       3.29116461      15.55449050       3.27158299       0.00280893      -0.00084024      -0.00155475
Pb       0.01874013      12.44889860       6.27540163      -0.00295805      -0.00481568       0.07132215
I       -3.11337910      19.51706372       6.60699351      -0.00171647       0.00676972      -0.00400089
I       -0.84156821      15.55706283       6.48687720      -0.00086081      -0.02017236      -0.00516380
I       -3.05739447      13.33078606      12.90808135       0.01573464      -0.00515995       0.00131512
Cs       3.25550730      15.86845696       9.75051120       0.01602029       0.01939280      -0.00230062
Pb      -0.00267168      18.70203655       0.02601131       0.00433771      -0.01777172      -0.00508076
I        3.11777270      19.51749650       0.11445577       0.00426417       0.00139122      -0.00247777
I       -0.82592714      21.81703905      -0.13226731      -0.00461950      -0.00599967      -0.00393636
I       -0.09499027      18.89276043       3.27705260      -0.00117474      -0.00810952       0.01002345
Cs      -3.24792769      15.66948333       3.27249830       0.01159979       0.00352293       0.00459096
Pb       0.00551323      18.72025496       6.51563018      -0.00204840      -0.03940370       0.01773161
I        3.12731780      17.89346627       6.41791663      -0.00159408       0.01548138      -0.01809671
I        0.81589703      21.82037295       6.70571719       0.00539803      -0.00717929      -0.00286138
I        0.10192709      18.45058857       9.76151427      -0.00530881       0.02747147       0.00095131
Cs      -3.19495693      15.78329142       9.75606961      -0.02546858       0.02978546      -0.00424206
Pb       0.04089985      12.46239558      13.23448628       0.00537721      -0.00147093      -0.07524128
I       -3.10067493      17.91577573      12.96448707       0.00574205       0.01766708       0.02522432
I        0.88194480      15.57489959      13.03772614       0.00109786      -0.02576760       0.00741789
I        0.09494805      12.26082248      16.26322549      -0.00013473      -0.00567828      -0.00797325
Cs       3.28742057      15.58926730      16.24000019      -0.00665916       0.00991263      -0.00187639
Pb       0.03575759      12.49303925      19.57437708       0.00004834      -0.00361240      -0.05263589
I       -3.08790194      19.54038133      19.56106731      -0.00663679       0.00408188      -0.00094848
I       -0.78895959      15.59159755      19.29783878      -0.00726979       0.01891535       0.00333215
I       -0.04485877      12.70161932      22.72815057       0.00076619       0.00717209      -0.00057593
Cs       3.07127671      15.67566889      22.73015992       0.00542709      -0.00123387      -0.00239087
Pb       0.02291734      18.73225664      13.01114999       0.00256853      -0.03851487      -0.01868678
I        3.14458277      19.52676784      13.06825124      -0.00186791       0.00590557      -0.00059161
I       -0.79805826      21.83186478      12.82686294      -0.00251891      -0.00725205       0.00364223
I       -0.06194719      18.91378952      16.24740144       0.01160390      -0.00567957      -0.01165018
Cs      -3.25787961      15.64894828      16.23112817      -0.00269580      -0.01235287       0.00264747
Pb       0.03143336      18.72285086      19.49774596      -0.00474831      -0.01600640       0.00676097
I        3.15100878      17.89206692      19.41482887       0.00642467       0.00478508       0.00414153
I        0.84410892      21.83803184      19.66733244       0.00671367      -0.00939841       0.00495914
I        0.12796810      18.47899381      22.73543548      -0.00578138       0.00125161      -0.00051988
Cs      -2.97719510      15.59801242      22.72996247      -0.00481336       0.00475500      -0.00248291
159
Lattice="12.468877150473974 12.455658885840549 0.03660578085816481 -12.50093584829824 12.487541340136369 -0.009235160890552896 0.04511834328209048 0.027282498203389086 25.94770021635299" Properties=species:S:1:pos:R:3:forces_eV_per_A:R:3 energy_eV=-125820.37772898293 fmax_eV_per_A=0.06921204032720223 source=q0_final_ns1.out.gz ionic_step=2 tot_charge=0.0 pbc="T T T"
Pb       0.01936825      -0.00713642       0.00927811      -0.00188256      -0.00032087      -0.00457502
I       -3.10806044       5.41446910      -0.05506310      -0.00221681      -0.00136706       0.00133389
I        0.83479276       3.11322621       0.18980035       0.00417727       0.00745903       0.00315526
I        0.11926296      -0.23256142       3.25525856      -0.00522165       0.00165939       0.01188004
Cs       3.26825431       3.05541803       3.26075190       0.00321002      -0.00108552      -0.00187433
Pb       0.02790223      -0.00299013       6.49546318      -0.00563997       0.00252302      -0.00310821
I       -3.09798600       7.03768490       6.55684250      -0.00095311      -0.01164093      -0.00969820
I       -0.79003611       3.11313308       6.32543375      -0.00640590       0.00968560      -0.01207107
I       -0.05341722       0.22604307       9.74074859       0.00686536      -0.00545485       0.00027202
Cs       3.02083545       3.16257984       9.75150260      -0.00560963      -0.00800025      -0.00074356
Pb       0.01478676       6.22540489       0.01380774      -0.00470512       0.01404388       0.00111406
I        3.13527757       7.04874319       0.09257296       0.00357255      -0.00640642      -0.00872118
I       -0.81881831       9.35851768      -0.11812130      -0.00820516      -0.01575546      -0.01182579
I       -0.06542890       6.48985335       3.26507552       0.00932102       0.00206305       0.00849955
Cs      -3.23378318       3.15548915       3.24761104       0.00165836      -0.00523168       0.00169719
Pb       0.02910460       6.22028861       6.49973980       0.00326890       0.02868709       0.00765160
I        3.14490217       5.41324003       6.44152931       0.00463416      -0.00598476       0.00318483
I        0.84595961       9.36953957       6.79129070      -0.00974680       0.02173996      -0.01436501
I        0.12154557       6.01347029       9.74593488      -0.00624315      -0.01389836      -0.00089654
Cs      -2.94477700       3.07933106       9.73938696       0.00501365      -0.00253665      -0.00316863
Pb       0.04702739       0.00838191      12.98592323       0.00138942       0.00557158       0.00283696
I       -3.08593224       5.43858898      12.89722892      -0.00263204      -0.00268089       0.00016841
I        0.85797990       3.12854956      13.15851087       0.00441664       0.00506533       0.01110742
I        0.14259733      -0.21857669      16.22601077      -0.00538826       0.00159923      -0.01204819
Cs       3.29431043       3.06378065      16.23848862       0.00116651       0.00008562       0.00310744
Pb       0.05512873       0.01273779      19.47208569       0.00138840       0.00117268       0.00469663
I       -3.07344131       7.07073787      19.55015601      -0.00689596      -0.00398650       0.00280636
I       -0.76461505       3.13118773      19.29297687      -0.00616165       0.00927320      -0.00424258
I       -0.03267998       0.24290624      22.71455729       0.00562635      -0.00229368       0.00007919
Cs       3.05756066       3.18208253      22.72203563      -0.00474626      -0.00390011      -0.00139688
Pb       0.03418954       6.23588271      12.99073383      -0.00237801       0.03198684      -0.00815425
I        3.15969814       7.05589358      13.07175693      -0.00086492      -0.01070376       0.00215278
I       -0.79498108       9.38631851      12.69672626       0.01076315       0.01982989       0.01009287
I       -0.05252186       6.50546960      16.22545809       0.00457862       0.00106984      -0.00720706
Cs      -3.20749696       3.17362800      16.22539626       0.00062966      -0.00580324       0.00525868
Pb       0.04762357       6.24570089      19.47998437       0.00548776       0.01544462      -0.00272563
I        3.16602618       5.42414883      19.39826525       0.00533247      -0.00275159       0.00199106
I        0.86806386       9.37941727      19.62598168       0.00887673      -0.01975173       0.01385259
I        0.14500856       6.04234735      22.71980186      -0.00539315       0.00603207       0.00100659
Cs      -2.93445033       3.10170174      22.71447410       0.00290638       0.00032087      -0.00259579
Pb      -6.23031719       6.23730488      -0.00365819      -0.00040803      -0.00082352      -0.00280070
I       -9.35912643      11.65621329      -0.05938933       0.01039497      -0.00198541       0.00035096
I       -5.41392471       9.35512643       0.18199443      -0.00431225      -0.00562969      -0.00158251
I       -6.12755837       6.01229848       3.24576925      -0.00261944       0.00527590       0.00543737
Cs      -3.04020712       9.27108866       3.26636496      -0.00678154       0.00791926       0.00309689
Pb      -6.21758294       6.24145724       6.46795496      -0.00082275      -0.00308224      -0.00136680
I       -9.35102111      13.29685265       6.57797096       0.01067085       0.00204120      -0.00938504
I       -7.03606168       9.35606316       6.32814819      -0.01003759       0.00049699      -0.00466064
I       -6.33614060       6.44667281       9.73536884      -0.00691215      -0.01480338      -0.00006968
Cs      -3.40288795       9.21536204       9.75919365      -0.00627066      -0.00743589      -0.00164679
Pb      -6.24081447      12.47232742       0.00641298       0.01183710       0.00398907      -0.00414796
I       -3.10605285      13.29892590       0.10843814      -0.01709912       0.00425955      -0.00912922
I       -7.05935308      15.58849152      -0.15433942      -0.00451589       0.00607089      -0.00439582
I       -6.29374809      12.70132324       3.25553850       0.00924492      -0.00913976       0.01112645
Cs      -9.47673705       9.40340348       3.24313814      -0.00371884      -0.00269786      -0.00018872
Pb      -6.24454102      12.47370183       6.49090360       0.02959957      -0.00261147       0.01324530
I       -3.09025834      11.62022146       6.54319681       0.02895885       0.00266726      -0.00877749
I       -5.43729176      15.59481126       6.64219902      -0.01234104      -0.00470975      -0.01710041
I       -6.11360997      12.25513157       9.74074150      -0.02871922       0.00211113      -0.00171107
Cs      -9.21357616       9.34685696       9.73632330      -0.00541911       0.00947837      -0.00300845
Pb      -6.20521990       6.25130385      13.00413701       0.00325245       0.00126704       0.00095491
I       -9.32946006      11.67469555      12.90755323       0.00729936      -0.00155860       0.01038571
I       -5.39736873       9.36950592      13.16589118      -0.01083874      -0.00036818       0.01399143
I       -6.10520129       6.02895501      16.22605656      -0.00289223       0.00733690      -0.00583049
Cs      -3.00581298       9.25949692      16.24220214      -0.00020003      -0.00251634       0.00380575
Pb      -6.19722052       6.25643366      19.47597107       0.00041935       0.00066643       0.00353115
I       -9.32223732      13.31299403      19.54010282       0.00580427       0.00335709      -0.00142156
I       -7.01334225       9.37396174      19.28388185      -0.00548725      -0.00401426      -0.00477557
I       -6.28605532       6.48747915      22.70979465       0.00387157      -0.00474549       0.00007225
Cs      -3.21021005       9.39993474      22.72491456       0.00008536      -0.00678797       0.00071708
Pb      -6.22221866      12.49024423      12.98476171       0.03476595       0.00210830      -0.01324838
I       -7.02299389      15.60365741      12.79728793      -0.00569936       0.00268963      -0.00181083
I       -6.25853072      12.72420994      16.22246829       0.01133368       0.00019823      -0.00821030
Cs      -9.46185325       9.40890261      16.21958109      -0.00180671      -0.00085592       0.00756727
Pb      -6.20283084      12.49135935      19.47682442       0.01499956      -0.00338769       0.00074331
I       -3.07241809      11.65926913      19.38461460      -0.01690166      -0.00486376       0.01227625
I       -5.38686512      15.60948233      19.64836895       0.00080218       0.00384380       0.00393919
I       -6.09086767      12.26615084      22.71464484      -0.00394047       0.00380935       0.00123696
Cs      -9.18390784       9.34465844      22.70947691      -0.00287064       0.00616396      -0.00311515
Pb       6.25583820       6.22136299       0.02000226       0.00002880       0.00030570      -0.00318483
I        3.11284584      11.63326741      -0.01522641       0.02115118      -0.00411454      -0.00992266
I        7.06819482       9.34067653       0.21232184       0.00357023      -0.00602898       0.00369005
I        6.35006264       6.00277780       3.26896957      -0.00993089       0.00956348       0.00526999
Cs       9.50438699       9.27522306       3.28100413       0.00361574       0.00369545      -0.00307967
Pb       6.26417949       6.22811200       6.49353105      -0.00146219       0.00120688      -0.00243895
I        3.10378774      13.29832346       6.74017777      -0.01826383      -0.00600507      -0.00596625
I        5.44706887       9.34248770       6.34077530       0.00521497       0.00104567      -0.00891941
I        6.24129373       6.39726657       9.75980376       0.02522587      -0.02201533       0.00032473
Cs       9.27187755       9.41089307       9.76539967       0.00427857       0.00231914      -0.00151824
Pb       6.24836076      12.45563776       0.03308464      -0.01554515      -0.00480025       0.00179360
I        9.36736098      13.27475499       0.11717278      -0.00911070       0.00120199      -0.00260761
I        5.42235208      15.57342144      -0.12970225       0.00210471       0.00651620      -0.00460819
I        6.12800590      12.69078387       3.28866458       0.00127167      -0.00316554       0.00695921
Cs       3.04144623       9.33465932       3.26307208      -0.00090040      -0.00845996       0.00256673
Pb       6.26329952      12.46463453       6.52448440      -0.03330530       0.00155603       0.01010315
I        9.37189957      11.63992799       6.44992406      -0.00473674      -0.00286241      -0.00592536
I        7.05453861      15.58037842       6.72584683       0.00620793       0.00214661       0.00471206
I        6.34997513      12.23588466       9.76894395       0.01408708       0.00379752       0.00239138
Cs       3.42116721       9.16995667       9.75397786       0.00279479       0.00020595      -0.00300742
Pb       6.27561085       6.23525118      13.02435863      -0.00040443      -0.00124236       0.00253022
I        3.13531811      11.63603948      12.82955291      -0.02478184       0.01006073       0.01906165
I        7.09181723       9.35118664      13.16995839       0.00810309      -0.00371344       0.00323393
I        6.36966421       6.01237369      16.24913496      -0.01202042       0.00629895      -0.00561220
Cs       9.52160294       9.29362327      16.25810475       0.00593514       0.00082918       0.00376795
Pb       6.28865776       6.23956702      19.49723606      -0.00009744      -0.00051473       0.00305190
I        3.14989590      13.30589955      19.54121144       0.01408836       0.00741198       0.00622413
I        5.46777215       9.35663114      19.31618710       0.00166633      -0.00299456       0.00154883
I        6.20414133       6.46978188      22.73291922       0.00926780      -0.00610611       0.00019155
Cs       9.29011576       9.40819099      22.74175701      -0.00021417       0.00079910       0.00017998
Pb       6.28990808      12.46471245      13.01719696      -0.02771624      -0.00361009      -0.00987715
I        9.39789548      13.28998727      13.08292330      -0.01257655       0.00126061       0.00588448
I        5.47341236      15.58754945      12.87459963       0.01502656      -0.00130124       0.01457533
I        6.15781133      12.69675803      16.25185335       0.00010979      -0.00876232      -0.00986738
Cs       3.07602947       9.36909808      16.24084423       0.00762255       0.00236901       0.00263949
Pb       6.28561328      12.47436992      19.50075660      -0.01232690       0.00378286       0.00214764
I        9.40079676      11.65105135      19.41942515      -0.00778273      -0.00310512       0.00264387
I        7.09244029      15.59328868      19.67475788       0.00580555       0.00302876       0.00451100
I        6.36002728      12.24917919      22.74253288      -0.00749785       0.00346250      -0.00110480
Cs       3.31226302       9.31379624      22.73037260      -0.00254591       0.00244023      -0.00314343
Pb      -0.00045136      12.47254092      -0.06428832       0.00241041      -0.00246826       0.05219006
I       -3.12460432      17.88063156      -0.04002768      -0.00351701       0.00438399       0.00091454
I        0.82703082      15.57431248       0.21026511       0.00536281       0.01595730      -0.00628583
I        0.12463932      12.26968546       3.24635928      -0.00287501      -0.00489050       0.01362762
Cs       3.29124490      15.55444442       3.27149391       0.00223326      -0.00109066      -0.00190210
Pb       0.01863915      12.44873749       6.27800548      -0.00263384      -0.00416853       0.06564001
I       -3.11344379      19.51729352       6.60683300      -0.00142825       0.00617270      -0.00406697
I       -0.84159391      15.55625161       6.48667177      -0.00120225      -0.02027906      -0.00498408
I       -3.05675506      13.33059053      12.90812818       0.01580946      -0.00465730       0.00082867
Cs       3.25612515      15.86919480       9.75041553       0.01670754       0.01966560      -0.00241787
Pb      -0.00252171      18.70150602       0.02586520       0.00388185      -0.01389193      -0.00357461
I        3.11793623      19.51754722       0.11434635       0.00395307       0.00140151      -0.00273514
I       -0.82611336      21.81678617      -0.13243821      -0.00460922      -0.00604621      -0.00426880
I       -0.09503322      18.89240504       3.27742796      -0.00117422      -0.00901480       0.00990543
Cs      -3.24747249      15.66959042       3.27262199       0.01189855       0.00306424       0.00389368
Pb       0.00542208      18.71894280       6.51629446      -0.00254205      -0.03389871       0.01664429
I        3.12725759      17.89401189       6.41721632      -0.00159768       0.01450179      -0.01814119
I        0.81610922      21.82004904       6.70559345       0.00510827      -0.00849055      -0.00309998
I        0.10172126      18.45161562       9.76154678      -0.00533247       0.02699170       0.00077982
Cs      -3.19587892      15.78441253       9.75593762      -0.02520864       0.03014079      -0.00359260
Pb       0.04108092      12.46234951      13.23174062       0.00469509      -0.00117499      -0.06904261
I       -3.10045735      17.91639878      12.96545354       0.00542400       0.01659133       0.02522304
I        0.88198926      15.57386509      13.03801240       0.00164448      -0.02590901       0.00711527
I        0.09493687      12.26061025      16.26286029      -0.00034581      -0.00544663      -0.01249968
Cs       3.28714272      15.58962556      16.23996905      -0.00718186       0.00953339      -0.00137631
Pb       0.03576505      12.49290502      19.57241418       0.00023423      -0.00329641      -0.04976139
I       -3.08816014      19.54052182      19.56104726      -0.00632646       0.00391836      -0.00071142
I       -0.78925548      15.59231663      19.29797075      -0.00762821       0.01769845       0.00326839
I       -0.04482038      12.70187765      22.72812967       0.00103564       0.00669927      -0.00044506
Cs       3.07147124      15.67563952      22.73007536       0.00536435      -0.00106932      -0.00230062
Pb       0.02301821      18.73097651      13.01045753       0.00285212      -0.03301400      -0.01730070
I        3.14451214      19.52696617      13.06823286      -0.00186945       0.00527950      -0.00069625
I       -0.79815742      21.83153923      12.82701278      -0.00228108      -0.00861705       0.00374250
I       -0.06149516      18.91352622      16.24696527       0.01186461      -0.00655606      -0.01137070
Cs      -3.25795063      15.64845402      16.23127359      -0.00208465      -0.01274316       0.00321954
Pb       0.03126222      18.72238442      19.49794601      -0.00442358      -0.01231507       0.00490027
I        3.15125677      17.89223051      19.41500228       0.00609300       0.00445289       0.00439556
I        0.84436601      21.83764692      19.66754551       0.00658588      -0.00923746       0.00533658
I        0.12774530      18.47903350      22.73541678      -0.00583075       0.00123747      -0.00046717
Cs      -2.97736828      15.59818265      22.72986941      -0.00474086       0.00459199      -0.00242609
159
Lattice="12.468877150473974 12.455658885840549 0.03660578085816481 -12.50093584829824 12.487541340136369 -0.009235160890552896 0.04511834328209048 0.027282498203389086 25.94770021635299" Properties=species:S:1:pos:R:3:forces_eV_per_A:R:3 energy_eV=-125820.37965595725 fmax_eV_per_A=0.060798697206167276 source=q0_final_ns1.out.gz ionic_step=3 tot_charge=0.0 pbc="T T T"
Pb       0.01925566      -0.00715300       0.00901615      -0.00169950      -0.00019232      -0.00361909
I       -3.10819844       5.41439967      -0.05499039      -0.00185685      -0.00137863       0.00138634
I        0.83503777       3.11368562       0.18997651       0.00373607       0.00628712       0.00294366
I        0.11894065      -0.23245134       3.25594851      -0.00517357       0.00160411       0.00991803
Cs       3.26849155       3.05538306       3.26058938       0.00332752      -0.00116368      -0.00191804
Pb       0.02756725      -0.00283821       6.49528735      -0.00503756       0.00209828      -0.00263692
I       -3.09804771       7.03700115       6.55624696      -0.00084641      -0.01088297      -0.00922075
I       -0.79041653       3.11374378       6.32469572      -0.00562866       0.01049884      -0.01152883
I       -0.05299698       0.22570844       9.74076412       0.00673655      -0.00522217       0.00015144
Cs       3.02053044       3.16213787       9.75145797      -0.00561349      -0.00825427      -0.00067003
Pb       0.01450488       6.22621805       0.01388257      -0.00440687       0.01271436       0.00104798
I        3.13549078       7.04837157       0.09203707       0.00298557      -0.00594362      -0.00857334
I       -0.81931493       9.35759719      -0.11883850      -0.00793905      -0.01276064      -0.01133522
I       -0.06485957       6.48999844       3.26557403       0.00926908       0.00244126       0.00820311
Cs      -3.23372638       3.15520644       3.24766884       0.00154780      -0.00523451       0.00142773
Pb       0.02930328       6.22197556       6.50019815       0.00336069       0.02575706       0.00652238
I        3.14518512       5.41290703       6.44171605       0.00365328      -0.00532938       0.00344348
I        0.84537072       9.37085408       6.79042849      -0.00841008       0.01894595      -0.01282929
I        0.12116667       6.01266488       9.74588110      -0.00618196      -0.01314451      -0.00080398
Cs      -2.94450729       3.07920562       9.73918325       0.00512164      -0.00275031      -0.00290380
Pb       0.04710810       0.00871653      12.98608484       0.00137657       0.00484576       0.00243175
I       -3.08609533       5.43845540      12.89725068      -0.00182728      -0.00216538       0.00006762
I        0.85823580       3.12888348      13.15919066       0.00370959       0.00656197       0.01066159
I        0.14226787      -0.21847750      16.22531305      -0.00535946       0.00153701      -0.00992369
Cs       3.29441614       3.06382504      16.23872808       0.00123747       0.00004242       0.00311386
Pb       0.05521078       0.01280981      19.47235172       0.00117139       0.00112177       0.00365097
I       -3.07385291       7.07051802      19.55032988      -0.00565180      -0.00370625       0.00260581
I       -0.76498894       3.13175563      19.29273588      -0.00559318       0.00783801      -0.00393585
I       -0.03233422       0.24275961      22.71456319       0.00557621      -0.00221501       0.00002648
Cs       3.05729696       3.18186692      22.72194731      -0.00467324      -0.00379058      -0.00133775
Pb       0.03404270       6.23776542      12.99024464      -0.00254051       0.02881693      -0.00716309
I        3.15965061       7.05527575      13.07189023      -0.00068160      -0.00984913       0.00172110
I       -0.79432629       9.38751676      12.69732719       0.00940047       0.01710349       0.00861191
I       -0.05224469       6.50556202      16.22503664       0.00446549       0.00142053      -0.00699186
Cs      -3.20748707       3.17331046      16.22576390       0.00046563      -0.00577290       0.00513758
Pb       0.04795050       6.24659627      19.47981564       0.00510775       0.01395364      -0.00243586
I        3.16634768       5.42400206      19.39839704       0.00439607      -0.00266109       0.00210213
I        0.86860148       9.37825748      19.62682244       0.00858980      -0.01633833       0.01330829
I        0.14468146       6.04272991      22.71986164      -0.00535355       0.00593719       0.00078676
Cs      -2.93429291       3.10174537      22.71432341       0.00284981       0.00041678      -0.00248651
Pb      -6.23033877       6.23725424      -0.00382632      -0.00028514      -0.00066386      -0.00249114
I       -9.35849189      11.65609992      -0.05937775       0.00868930      -0.00170953       0.00044943
I       -5.41417569       9.35479186       0.18188899      -0.00406877      -0.00472157      -0.00161877
I       -6.12771883       6.01261988       3.24608167      -0.00253922       0.00507690       0.00489230
Cs      -3.04060192       9.27157825       3.26651046      -0.00656840       0.00781770       0.00260453
Pb      -6.21763332       6.24127533       6.46786738      -0.00094977      -0.00245823      -0.00159666
I       -9.35035349      13.29697007       6.57739099       0.01119793       0.00145370      -0.00922692
I       -7.03664198       9.35608539       6.32786285      -0.00908782       0.00036330      -0.00421404
I       -6.33655421       6.44576622       9.73536308      -0.00674118      -0.01436964      -0.00017458
Cs      -3.40326327       9.21492877       9.75909162      -0.00641979      -0.00744926      -0.00144676
Pb      -6.24013206      12.47256732       0.00617763       0.01068602       0.00379289      -0.00321079
I       -3.10705439      13.29917579       0.10787987      -0.01368727       0.00426058      -0.00878983
I       -7.05960780      15.58885779      -0.15461145      -0.00430068       0.00514298      -0.00425800
I       -6.29315753      12.70076186       3.25619189       0.00952002      -0.00911610       0.01029675
Cs      -9.47692877       9.40320134       3.24307234      -0.00375664      -0.00264464      -0.00023063
Pb      -6.24279721      12.47354157       6.49168676       0.02664100      -0.00302876       0.01116450
I       -3.08850922      11.62037927       6.54267479       0.02584370       0.00169024      -0.00755827
I       -5.43800996      15.59453655       6.64115783      -0.01151237      -0.00386488      -0.01664172
I       -6.11531633      12.25525922       9.74063806      -0.02758563       0.00180980      -0.00147093
Cs      -9.21386962       9.34739583       9.73613888      -0.00560115       0.00953956      -0.00281433
Pb      -6.20503120       6.25137717      13.00419843       0.00248471       0.00119659       0.00125598
I       -9.32899524      11.67460502      12.90819402       0.00805244      -0.00094617       0.01027901
I       -5.39800096       9.36948185      13.16673938      -0.01000596      -0.00026894       0.01336742
I       -6.10538070       6.02940631      16.22572328      -0.00280533       0.00719035      -0.00514478
Cs      -3.00581901       9.25935588      16.24247277      -0.00019720      -0.00234690       0.00408445
Pb      -6.19719373       6.25647344      19.47619918       0.00031676       0.00053582       0.00317326
I       -9.32187513      13.31319914      19.54002617       0.00497354       0.00301308      -0.00149921
I       -7.01366096       9.37372107      19.28360770      -0.00512909      -0.00324782      -0.00443721
I       -6.28581718       6.48718784      22.70979913       0.00377052      -0.00458042       0.00004731
Cs      -3.21019859       9.39953493      22.72495616       0.00016841      -0.00648612       0.00070063
Pb      -6.22017026      12.49038225      12.98397433       0.03157752       0.00253459      -0.01150672
I       -7.02331510      15.60382401      12.79718759      -0.00507844       0.00193193      -0.00180029
I       -6.25781298      12.72421784      16.22198779       0.01154811       0.00025531      -0.00777373
Cs      -9.46193335       9.40881418      16.22008753      -0.00189670      -0.00090066       0.00725437
Pb      -6.20196191      12.49115709      19.47685995       0.01347464      -0.00316014       0.00030622
I       -3.07341119      11.65897901      19.38536402      -0.01400686      -0.00495940       0.01185921
I       -5.38680153      15.60971124      19.64860892       0.00081401       0.00314549       0.00367514
I       -6.09109334      12.26638746      22.71471819      -0.00385126       0.00367822       0.00092560
Cs      -9.18405475       9.34500535      22.70929376      -0.00273257       0.00605238      -0.00295857
Pb       6.25583978       6.22137954       0.01980712       0.00000771       0.00021623      -0.00295343
I        3.11409084      11.63301803      -0.01582991       0.01756681      -0.00419244      -0.00938556
I        7.06839764       9.34031480       0.21253135       0.00336609      -0.00496069       0.00344785
I        6.34945989       6.00336084       3.26927135      -0.00974165       0.00935547       0.00473237
Cs       9.50457460       9.27541333       3.28077580       0.00371473       0.00355815      -0.00307041
Pb       6.26409704       6.22818005       6.49338279      -0.00105235       0.00097856      -0.00257445
I        3.10268326      13.29795584       6.73982463      -0.01575084      -0.00488587      -0.00476503
I        5.44736005       9.34254671       6.34023361       0.00464984       0.00089037      -0.00835377
I        6.24282090       6.39593517       9.75982177       0.02462654      -0.02135044       0.00024785
Cs       9.27209992       9.41099361       9.76530737       0.00460587       0.00234870      -0.00136757
Pb       6.24746193      12.45535080       0.03319942      -0.01398526      -0.00451769       0.00170876
I        9.36680384      13.27482716       0.11700002      -0.00771202       0.00094822      -0.00268269
I        5.42245729      15.57380928      -0.12998429       0.00192884       0.00533530      -0.00436111
I        6.12805687      12.69059839       3.28907265       0.00094437      -0.00301848       0.00689750
Cs       3.04138902       9.33414973       3.26318733      -0.00091094      -0.00835377       0.00193604
Pb       6.26133721      12.46473747       6.52508793      -0.03034056       0.00195327       0.00894770
I        9.37158626      11.63976421       6.44955716      -0.00608143      -0.00221501      -0.00561375
I        7.05488034      15.58051058       6.72612114       0.00547542       0.00137760       0.00461487
I        6.35079569      12.23611251       9.76908514       0.01323038       0.00361111       0.00191984
Cs       3.42133232       9.16998415       9.75379589       0.00309227      -0.00005991      -0.00277602
Pb       6.27559147       6.23517458      13.02451451      -0.00013370      -0.00113823       0.00270249
I        3.13381977      11.63663794      12.83069638      -0.02195182       0.00863274       0.01752413
I        7.09228433       9.35095885      13.17015821       0.00732122      -0.00312286       0.00286087
I        6.36893391       6.01275795      16.24881258      -0.01185819       0.00604081      -0.00489178
Cs       9.52193376       9.29363672      16.25837948       0.00597962       0.00075513       0.00363143
Pb       6.28864929       6.23953595      19.49742596      -0.00006582      -0.00035481       0.00276342
I        3.15071744      13.30634106      19.54159093       0.01126478       0.00722480       0.00582303
I        5.46785382       9.35645073      19.31628943       0.00152466      -0.00254822       0.00165296
I        6.20470619       6.46940681      22.73293046       0.00913642      -0.00591457       0.00009179
Cs       9.29007927       9.40821309      22.74176409      -0.00028282       0.00069368       0.00008819
Pb       6.28827561      12.46449441      13.01660958      -0.02486334      -0.00380343      -0.00823087
I        9.39711458      13.29004586      13.08328814      -0.01295348       0.00077879       0.00552222
I        5.47428938      15.58747821      12.87548629       0.01410327      -0.00109632       0.01396803
I        6.15779372      12.69621910      16.25127489      -0.00026688      -0.00870704      -0.00911842
Cs       3.07647678       9.36925170      16.24103743       0.00744412       0.00237956       0.00281407
Pb       6.28490010      12.47459873      19.50087473      -0.01125089       0.00361574       0.00165322
I        9.40031734      11.65086454      19.41960020      -0.00653240      -0.00276445       0.00273154
I        7.09276890      15.59347456      19.67503580       0.00551245       0.00257265       0.00430377
I        6.35955261      12.24939527      22.74246812      -0.00743537       0.00337560      -0.00090889
Cs       3.31210380       9.31395373      22.73018105      -0.00251094       0.00242866      -0.00307144
Pb      -0.00030821      12.47239279      -0.06118209       0.00193964      -0.00220909       0.04643875
I       -3.12481225      17.88088362      -0.03997798      -0.00287372       0.00407288       0.00099913
I        0.82735188      15.57524868       0.20987945       0.00537746       0.01300747      -0.00595108
I        0.12446466      12.26939111       3.24720294      -0.00298814      -0.00452231       0.01874180
Cs       3.29136959      15.55437100       3.27133991       0.00209725      -0.00108938      -0.00226386
Pb       0.01848174      12.44849590       6.28192379      -0.00249706      -0.00366279       0.05805346
I       -3.11353534      19.51764123       6.60657918      -0.00107009       0.00554381      -0.00397544
I       -0.84165758      15.55502469       6.48637755      -0.00186328      -0.01815353      -0.00395436
I       -3.05579372      13.33031143      12.90816557       0.01396932      -0.00364377      -0.00029208
Cs       3.25711508      15.87037767       9.75026740       0.01671449       0.01969054      -0.00227157
Pb      -0.00229204      18.70070315       0.02566176       0.00355686      -0.01239349      -0.00263307
I        3.11817611      19.51762616       0.11416784       0.00329898       0.00133029      -0.00284287
I       -0.82639660      21.81641143      -0.13270510      -0.00416956      -0.00516329      -0.00408034
I       -0.09510393      18.89182840       3.27800941      -0.00122976      -0.00926883       0.00930894
Cs      -3.24675052      15.66976202       3.27280366       0.01169312       0.00304547       0.00336120
Pb       0.00526085      18.71694572       6.51727908      -0.00300356      -0.03065141       0.01427374
I        3.12716678      17.89485542       6.41611450      -0.00142902       0.01356103      -0.01755498
I        0.81642021      21.81951277       6.70539161       0.00425492      -0.00904360      -0.00321979
I        0.10139769      18.45321843       9.76159213      -0.00515249       0.02571412       0.00057747
Cs      -3.19735484      15.78621304       9.75573835      -0.02513665       0.03026266      -0.00320925
Pb       0.04135638      12.46228393      13.22762234       0.00424438      -0.00092380      -0.06064333
I       -3.10013913      17.91735881      12.96698019       0.00452180       0.01542174       0.02458669
I        0.88208535      15.57229796      13.03843415       0.00238367      -0.02327209       0.00602384
I        0.09491191      12.26028438      16.26208270      -0.00056024      -0.00502496      -0.01825586
Cs       3.28670153      15.59019524      16.23992991      -0.00708339       0.00939353      -0.00102304
Pb       0.03578156      12.49270863      19.56944867       0.00037384      -0.00274054      -0.04441761
I       -3.08854091      19.54074209      19.56101339      -0.00535535       0.00376358      -0.00075076
I       -0.78972376      15.59335596      19.29817505      -0.00747240       0.01435190       0.00306193
I       -0.04475040      12.70227128      22.72810424       0.00129481       0.00608863      -0.00020517
Cs       3.07177156      15.67558226      22.72994074       0.00501648      -0.00135883      -0.00227028
Pb       0.02319450      18.72903372      13.00943519       0.00329101      -0.02967953      -0.01470491
I        3.14440975      19.52726318      13.06819473      -0.00154858       0.00464393      -0.00095079
I       -0.79829349      21.83099513      12.82725221      -0.00160720      -0.00932385       0.00373427
I       -0.06077045      18.91309693      16.24629802       0.01188981      -0.00681574      -0.01042840
Cs      -3.25806507      15.64766861      16.23151142      -0.00208131      -0.01257270       0.00340106
Pb       0.03099778      18.72167646      19.49822599      -0.00412816      -0.01104906       0.00365817
I        3.15161887      17.89248467      19.41527945       0.00505068       0.00420324       0.00438939
I        0.84475882      21.83708163      19.66787759       0.00602152      -0.00773414       0.00508050
I        0.12739144      18.47909274      22.73538881      -0.00574205       0.00110095      -0.00040726
Cs      -2.97763372      15.59844541      22.72972544      -0.00437473       0.00428706      -0.00227286
159
Lattice="12.468877150473974 12.455658885840549 0.03660578085816481 -12.50093584829824 12.487541340136369 -0.009235160890552896 0.04511834328209048 0.027282498203389086 25.94770021635299" Properties=species:S:1:pos:R:3:forces_eV_per_A:R:3 energy_eV=-125820.38228253632 fmax_eV_per_A=0.04904832497284174 source=q0_final_ns1.out.gz ionic_step=4 tot_charge=0.0 pbc="T T T"
Pb       0.01908643      -0.00717243       0.00864740      -0.00138454       0.00001003      -0.00214276
I       -3.10839979       5.41428549      -0.05486907      -0.00131563      -0.00144547       0.00150615
I        0.83540657       3.11435967       0.19024979       0.00307273       0.00460587       0.00267909
I        0.11842786      -0.23227961       3.25695811      -0.00508821       0.00149355       0.00724923
Cs       3.26887112       3.05531420       3.26033573       0.00335838      -0.00147453      -0.00179232
Pb       0.02706691      -0.00261909       6.49503124      -0.00400912       0.00143133      -0.00186251
I       -3.09814203       7.03594275       6.55531833      -0.00072094      -0.00983241      -0.00852604
I       -0.79098362       3.11475205       6.32354354      -0.00445829       0.01137739      -0.01071456
I       -0.05233055       0.22518533       9.74078252       0.00655554      -0.00486967      -0.00003111
Cs       3.02003451       3.16140662       9.75138924      -0.00575721      -0.00882660      -0.00059495
Pb       0.01407281       6.22744226       0.01399988      -0.00385048       0.01038623       0.00101584
I        3.13580097       7.04779716       0.09118709       0.00211859      -0.00534301      -0.00835223
I       -0.82009553       9.35627672      -0.11995872      -0.00753333      -0.00849467      -0.01055181
I       -0.06395039       6.49024850       3.26635654       0.00919992       0.00295291       0.00774828
Cs      -3.23363555       3.15475110       3.24775278       0.00148867      -0.00525199       0.00113026
Pb       0.02962517       6.22451688       6.50087260       0.00345788       0.02110644       0.00489281
I        3.14558839       5.41240322       6.44203007       0.00227260      -0.00447141       0.00384740
I        0.84449986       9.37280840       6.78912750      -0.00640230       0.01480184      -0.01061094
I        0.12056299       6.01140731       9.74579877      -0.00609403      -0.01218780      -0.00070165
Cs      -2.94406103       3.07898507       9.73886892       0.00545562      -0.00324576      -0.00261121
Pb       0.04723565       0.00920971      12.98632180       0.00131152       0.00364660       0.00176275
I       -3.08631619       5.43826356      12.89727877      -0.00071065      -0.00152004      -0.00011056
I        0.85860819       3.12948327      13.16025402       0.00266135       0.00840185       0.00996997
I        0.14174155      -0.21832293      16.22429882      -0.00532476       0.00142593      -0.00703660
Cs       3.29458321       3.06388348      16.23910086       0.00121279      -0.00026020       0.00287706
Pb       0.05533033       0.01292228      19.47272417       0.00083664       0.00104027       0.00209519
I       -3.07444728       7.07017618      19.55059748      -0.00385897      -0.00338923       0.00231502
I       -0.76555644       3.13258976      19.29236486      -0.00472903       0.00578087      -0.00350056
I       -0.03178399       0.24253118      22.71457067       0.00548236      -0.00204866      -0.00002520
Cs       3.05687170       3.18152447      22.72181176      -0.00471489      -0.00367642      -0.00117422
Pb       0.03380008       6.24060858      12.98951418      -0.00274928       0.02382899      -0.00571813
I        3.15958556       7.05432699      13.07207952      -0.00037692      -0.00867336       0.00105107
I       -0.79335208       9.38928902      12.69821180       0.00733844       0.01307149       0.00644704
I       -0.05180644       6.50572529      16.22437319       0.00430763       0.00187279      -0.00665839
Cs      -3.20747470       3.17279573      16.22633556       0.00034504      -0.00589760       0.00472826
Pb       0.04845071       6.24794437      19.47955866       0.00443644       0.01140310      -0.00209828
I        3.16681364       5.42376882      19.39861353       0.00304264      -0.00258447       0.00226720
I        0.86944667       9.37657690      19.62813837       0.00815605      -0.01143344       0.01246779
I        0.14415938       6.04333463      22.71994723      -0.00530239       0.00573793       0.00050702
Cs      -2.93403665       3.10181605      22.71408916       0.00293003       0.00047694      -0.00228417
Pb      -6.23036872       6.23718050      -0.00408045      -0.00015324      -0.00046588      -0.00206820
I       -9.35756524      11.65593335      -0.05935053       0.00623724      -0.00128709       0.00066977
I       -5.41456772       9.35430378       0.18171997      -0.00377644      -0.00340028      -0.00163137
I       -6.12797104       6.01312405       3.24655552      -0.00240964       0.00478534       0.00413922
Cs      -3.04122963       9.27235262       3.26672303      -0.00642030       0.00756470       0.00199183
Pb      -6.21772012       6.24101630       6.46771787      -0.00111534      -0.00155577      -0.00183757
I       -9.34926705      13.29712596       6.57647051       0.01171446       0.00056281      -0.00900709
I       -7.03752607       9.35611472       6.32743000      -0.00779404       0.00018975      -0.00355429
I       -6.33720924       6.44433910       9.73534785      -0.00652212      -0.01369190      -0.00034478
Cs      -3.40387898       9.21422765       9.75893783      -0.00681625      -0.00764955      -0.00118811
Pb      -6.23910703      12.47293790       0.00585161       0.00865048       0.00340594      -0.00174398
I       -3.10848339      13.29957718       0.10700577      -0.00883534       0.00428603      -0.00824039
I       -7.06000777      15.58939562      -0.15503740      -0.00405900       0.00379649      -0.00400398
I       -6.29220114      12.69986435       3.25719631       0.00985247      -0.00907985       0.00911816
Cs      -9.47724581       9.40288615       3.24297283      -0.00397287      -0.00247649      -0.00015607
Pb      -6.24016575      12.47326307       6.49283173       0.02197214      -0.00362834       0.00812546
I       -3.08587767      11.62057951       6.54190172       0.02118255       0.00022831      -0.00581275
I       -5.43912125      15.59413938       6.63951352      -0.01038803      -0.00267703      -0.01599663
I       -6.11799667      12.25544719       9.74048331      -0.02608179       0.00135806      -0.00117422
Cs      -9.21435744       9.34826938       9.73585578      -0.00604903       0.00977636      -0.00247931
Pb      -6.20476761       6.25149157      13.00431018       0.00140151       0.00109889       0.00161028
I       -9.32822308      11.67449297      12.90921420       0.00886002      -0.00002982       0.01012218
I       -5.39897423       9.36944846      13.16806411      -0.00887468      -0.00012316       0.01243051
I       -6.10566320       6.03012054      16.22522323      -0.00267549       0.00696152      -0.00418833
Cs      -3.00583028       9.25913549      16.24291581      -0.00023166      -0.00216564       0.00438810
Pb      -6.19715638       6.25653010      19.47653944       0.00017329       0.00034710       0.00252997
I       -9.32133999      13.31350847      19.53989680       0.00375792       0.00248626      -0.00166273
I       -7.01415462       9.37337519      19.28318495      -0.00464907      -0.00215124      -0.00396696
I       -6.28544161       6.48673093      22.70980575       0.00361394      -0.00431868       0.00003291
Cs      -3.21017724       9.39890908      22.72502453       0.00026508      -0.00608117       0.00074871
Pb      -6.21706286      12.49062455      12.98280533       0.02655153       0.00313829      -0.00895592
I       -7.02380061      15.60405220      12.79702629      -0.00424746       0.00086492      -0.00181057
I       -6.25665622      12.72423494      16.22123923       0.01178954       0.00036947      -0.00717646
Cs      -9.46207757       9.40867562      16.22087061      -0.00228931      -0.00087597       0.00654937
Pb      -6.20065885      12.49084891      19.47689304       0.01085237      -0.00270686      -0.00039184
I       -3.07485076      11.65850920      19.38654105      -0.00982213      -0.00510004       0.01122030
I       -5.38670283      15.61004213      19.64897813       0.00074845       0.00215664       0.00326684
I       -6.09145305      12.26675870      22.71482079      -0.00379058       0.00347510       0.00051396
Cs      -9.18428396       9.34556044      22.70900933      -0.00252739       0.00599736      -0.00270403
Pb       6.25584135       6.22140153       0.01951006      -0.00002005       0.00008999      -0.00251531
I        3.11589850      11.63261447      -0.01676546       0.01240660      -0.00431174      -0.00852989
I        7.06871384       9.33979075       0.21285606       0.00311155      -0.00342985       0.00313340
I        6.34850408       6.00428357       3.26972827      -0.00947580       0.00905388       0.00398135
Cs       9.50488871       9.27571631       3.28041957       0.00403740       0.00346328      -0.00286961
Pb       6.26398493       6.22827870       6.49314050      -0.00048620       0.00067569      -0.00268012
I        3.10104952      13.29742943       6.73932156      -0.01204202      -0.00316503      -0.00303519
I        5.44780113       9.34263223       6.33939659       0.00390808       0.00064355      -0.00750942
I        6.24523782       6.39383677       9.75984630       0.02381047      -0.02039991       0.00012470
Cs       9.27248287       9.41116396       9.76516675       0.00529313       0.00254642      -0.00117345
Pb       6.24611169      12.45490961       0.03337940      -0.01133805      -0.00398727       0.00163368
I        9.36598579      13.27492888       0.11672132      -0.00568471       0.00056564      -0.00275905
I        5.42262141      15.57436937      -0.13042140       0.00177458       0.00364454      -0.00396696
I        6.12812538      12.69030883       3.28972309       0.00054790      -0.00280559       0.00679671
Cs       3.04129803       9.33333701       3.26334289      -0.00090040      -0.00823370       0.00109169
Pb       6.25835629      12.46492157       6.52599386      -0.02563441       0.00249808       0.00728059
I        9.37102651      11.63953639       6.44898725      -0.00772539      -0.00125084      -0.00513655
I        7.05539369      15.58068393       6.72655572       0.00449377       0.00031367       0.00447192
I        6.35207111      12.23646759       9.76928783       0.01210707       0.00333858       0.00126858
Cs       3.42162209       9.17000627       9.75351528       0.00378929      -0.00065023      -0.00249037
Pb       6.27557353       6.23505816      13.02477068       0.00024014      -0.00096699       0.00286344
I        3.13157442      11.63752015      12.83244798      -0.01771490       0.00650232       0.01530244
I        7.09299580       9.35062461      13.17045735       0.00627478      -0.00227671       0.00228777
I        6.36777164       6.01335949      16.24833199      -0.01165378       0.00566054      -0.00388237
Cs       9.52247522       9.29366086      16.25880161       0.00625267       0.00077185       0.00320128
Pb       6.28863767       6.23949365      19.49771261      -0.00001877      -0.00015709       0.00228520
I        3.15188811      13.30703894      19.54217547       0.00723868       0.00696178       0.00518514
I        5.46798122       9.35618610      19.31645862       0.00140202      -0.00187716       0.00180826
I        6.20560394       6.46881731      22.73294426       0.00894461      -0.00560938      -0.00002365
Cs       9.29001782       9.40825204      22.74177516      -0.00039415       0.00076670       0.00008819
Pb       6.28581814      12.46413548      13.01575602      -0.02031866      -0.00406363      -0.00582535
I        9.39585547      13.29011465      13.08385171      -0.01322730       0.00006968       0.00495914
I        5.47565046      15.58737464      12.87687443       0.01284703      -0.00080116       0.01307817
I        6.15774890      12.69535963      16.25038712      -0.00075719      -0.00861525      -0.00803290
Cs       3.07718804       9.36949371      16.24135101       0.00727417       0.00227954       0.00296165
Pb       6.28382271      12.47495272      19.50103600      -0.00930199       0.00325810       0.00082738
I        9.39961514      11.65058438      19.41988356      -0.00474471      -0.00223583       0.00283670
I        7.09328306      15.59374776      19.67546882       0.00514838       0.00189773       0.00398418
I        6.35879863      12.24973596      22.74237486      -0.00728445       0.00323753      -0.00061475
Cs       3.31185423       9.31420393      22.72988316      -0.00237364       0.00239035      -0.00281973
Pb      -0.00010412      12.47216953      -0.05651534       0.00123593      -0.00182240       0.03781347
I       -3.12511227      17.88127432      -0.03989138      -0.00195892       0.00369416       0.00118116
I        0.82786677      15.57659555       0.20928150       0.00539623       0.00877980      -0.00540549
I        0.12417929      12.26893921       3.24880135      -0.00314137      -0.00397544       0.02559945
Cs       3.29156645      15.55425639       3.27108109       0.00198978      -0.00102073      -0.00263435
Pb       0.01823795      12.44813913       6.28782100      -0.00225177      -0.00279916       0.04744663
I       -3.11366340      19.51816945       6.60617735      -0.00055793       0.00471540      -0.00385357
I       -0.84179747      15.55317631       6.48596006      -0.00290046      -0.01495791      -0.00247494
I       -3.05435554      13.32992069      12.90816627       0.01119433      -0.00208414      -0.00193218
Cs       3.25870458      15.87227589       9.75003689       0.01681476       0.01977461      -0.00209288
Pb      -0.00194473      18.69950409       0.02538644       0.00296834      -0.00982367      -0.00118502
I        3.11852584      19.51775101       0.11387860       0.00234613       0.00128298      -0.00294983
I       -0.82682528      21.81585885      -0.13311935      -0.00348719      -0.00387131      -0.00373350
I       -0.09522094      18.89089643       3.27891125      -0.00133106      -0.00954496       0.00847898
Cs      -3.24561056      15.67004074       3.27307357       0.01124189       0.00312209       0.00271509
Pb       0.00497934      18.71392323       6.51873177      -0.00365791      -0.02555805       0.01081483
I        3.12702885      17.89616257       6.41438068      -0.00121973       0.01228910      -0.01669983
I        0.81687106      21.81863577       6.70506193       0.00295343      -0.00958456      -0.00341263
I        0.10088884      18.45572387       9.76165421      -0.00489255       0.02396654       0.00028154
Cs      -3.19972440      15.78910393       9.75543406      -0.02521635       0.03041461      -0.00276471
Pb       0.04177070      12.46219430      13.22144485       0.00347099      -0.00048465      -0.04892295
I       -3.09967470      17.91884111      12.96939267       0.00326710       0.01382354       0.02367189
I        0.88228041      15.56993326      13.03905283       0.00352061      -0.01929253       0.00445238
I        0.09486026      12.25978428      16.26056090      -0.00088909      -0.00441330      -0.02591724
Cs       3.28600577      15.59110162      16.23988052      -0.00679980       0.00919889      -0.00060575
Pb       0.03581569      12.49242440      19.56498610       0.00059213      -0.00189696      -0.03639885
I       -3.08909998      19.54108998      19.56095469      -0.00395461       0.00360752      -0.00085618
I       -0.79046386      15.59484812      19.29849001      -0.00721246       0.00957299       0.00272768
I       -0.04462451      12.70286968      22.72807506       0.00168613       0.00518052       0.00011441
Cs       3.07223426      15.67547944      22.72972742       0.00448838      -0.00164216      -0.00219701
Pb       0.02350025      18.72610098      13.00793331       0.00393816      -0.02451316      -0.01092668
I        3.14426159      19.52770993      13.06811950      -0.00110789       0.00381089      -0.00133569
I       -0.79847426      21.83009742      12.82763474      -0.00058158      -0.01008927       0.00371962
I       -0.05960776      18.91240093      16.24527640       0.01194689      -0.00709547      -0.00910891
Cs      -3.25825273      15.64642539      16.23189386      -0.00216821      -0.01217983       0.00349207
Pb       0.03059310      18.72061650      19.49860864      -0.00359209      -0.00884100       0.00177740
I        3.15214444      17.89288230      19.41572166       0.00354761       0.00391862       0.00435673
I        0.84535716      21.83625571      19.66839338       0.00516560      -0.00556310       0.00465755
I        0.12682917      18.47918317      22.73534764      -0.00561658       0.00096622      -0.00030545
Cs      -2.97803936      15.59885046      22.72950472      -0.00381629       0.00383300      -0.00199543
159
Lattice="12.468877150473974 12.455658885840549 0.03660578085816481 -12.50093584829824 12.487541340136369 -0.009235160890552896 0.04511834328209048 0.027282498203389086 25.94770021635299" Properties=species:S:1:pos:R:3:forces_eV_per_A:R:3 energy_eV=-125820.38560178119 fmax_eV_per_A=0.039886868867128875 source=q0_final_ns1.out.gz ionic_step=5 tot_charge=0.0 pbc="T T T"
Pb       0.01883218      -0.00719141       0.00814097      -0.00094925       0.00030313      -0.00001234
I       -3.10869004       5.41409738      -0.05466429      -0.00052836      -0.00151747       0.00170387
I        0.83595778       3.11534391       0.19067434       0.00205791       0.00229959       0.00228674
I        0.11760815      -0.23201155       3.25842459      -0.00495349       0.00131640       0.00351161
Cs       3.26948378       3.05518402       3.25994396       0.00345376      -0.00184965      -0.00147478
Pb       0.02632029      -0.00230663       6.49466045      -0.00259964       0.00049751      -0.00080424
I       -3.09828766       7.03430517       6.55386744      -0.00057927      -0.00820850      -0.00748191
I       -0.79182120       3.11641603       6.32174223      -0.00268423       0.01233307      -0.00945498
I       -0.05126873       0.22436524       9.74080139       0.00628840      -0.00434902      -0.00028411
Cs       3.01922576       3.16019208       9.75128333      -0.00588988      -0.00955911      -0.00048517
Pb       0.01341001       6.22927710       0.01418860      -0.00305344       0.00696435       0.00107189
I        3.13624594       7.04691036       0.08983397       0.00084589      -0.00440790      -0.00798816
I       -0.82132554       9.35441425      -0.12170853      -0.00689698      -0.00233739      -0.00927500
I       -0.06249126       6.49068539       3.26758412       0.00907857       0.00378544       0.00694841
Cs      -3.23349239       3.15400940       3.24787924       0.00132669      -0.00537463       0.00085412
Pb       0.03015111       6.22833581       6.50186005       0.00362526       0.01444240       0.00263281
I        3.14615464       5.41164484       6.44256236       0.00034607      -0.00317197       0.00444904
I        0.84322759       9.37568986       6.78717340      -0.00334989       0.00864611      -0.00730579
I        0.11959647       6.00944027       9.74567225      -0.00595442      -0.01073076      -0.00056616
Cs      -2.94332350       3.07860049       9.73838661       0.00578755      -0.00384637      -0.00209879
Pb       0.04743935       0.00993277      12.98666720       0.00124801       0.00197229       0.00083561
I       -3.08660582       5.43799410      12.89731270       0.00081555      -0.00054867      -0.00035918
I        0.85914080       3.13054814      13.16192035       0.00107781       0.01071739       0.00889782
I        0.14089612      -0.21808212      16.22283765      -0.00527359       0.00124544      -0.00299971
Cs       3.29485227       3.06395765      16.23967951       0.00127578      -0.00064895       0.00245129
Pb       0.05550288       0.01309834      19.47323094       0.00036330       0.00091840      -0.00016892
I       -3.07529312       7.06964469      19.55100750      -0.00127218      -0.00289403       0.00183474
I       -0.76641398       3.13380801      19.29179361      -0.00341365       0.00292360      -0.00285470
I       -0.03090448       0.24217583      22.71457893       0.00532887      -0.00176840      -0.00010927
Cs       3.05618110       3.18098264      22.72160367      -0.00478997      -0.00338743      -0.00093588
Pb       0.03339473       6.24489180      12.98842577      -0.00309432       0.01663144      -0.00370727
I        3.15950187       7.05287365      13.07234139       0.00011596      -0.00685353       0.00004911
I       -0.79191715       9.39188607      12.69949978       0.00420710       0.00712273       0.00324550
I       -0.05111109       6.50601788      16.22332924       0.00405797       0.00261224      -0.00605032
Cs      -3.20746485       3.17196058      16.22721950       0.00006479      -0.00596007       0.00395024
Pb       0.04921553       6.24996333      19.47916336       0.00344991       0.00760944      -0.00171673
I        3.16748049       5.42339777      19.39897121       0.00110223      -0.00243483       0.00249680
I        0.87077918       9.37417679      19.63019841       0.00748705      -0.00428783       0.01107503
I        0.14332189       6.04429493      22.72006773      -0.00521805       0.00544843       0.00010567
Cs      -2.93361872       3.10193279      22.71372640       0.00299482       0.00060241      -0.00193167
Pb      -6.23040846       6.23707436      -0.00445900       0.00005194      -0.00018152      -0.00133646
I       -9.35622224      11.65569225      -0.05929017       0.00281407      -0.00064098       0.00102896
I       -5.41517998       9.35359967       0.18144786      -0.00330155      -0.00149484      -0.00164011
I       -6.12836764       6.01391611       3.24727145      -0.00218621       0.00431688       0.00300793
Cs      -3.04223300       9.27358587       3.26703740      -0.00620973       0.00726645       0.00128889
Pb      -6.21786857       6.24065331       6.46746291      -0.00130689      -0.00028771      -0.00214096
I       -9.34749703      13.29731963       6.57500312       0.01220966      -0.00077724      -0.00866796
I       -7.03886814       9.35614990       6.32677632      -0.00582278      -0.00009385      -0.00254976
I       -6.33825024       6.44208575       9.73531291      -0.00617142      -0.01264340      -0.00059238
Cs      -3.40489676       9.21308375       9.75870634      -0.00740992      -0.00799048      -0.00082250
Pb      -6.23757569      12.47351076       0.00541457       0.00564460       0.00283233       0.00038258
I       -3.11048386      13.30022542       0.10563655      -0.00182883       0.00431303      -0.00733510
I       -7.06063633      15.59017839      -0.15570454      -0.00365765       0.00186328      -0.00357846
I       -6.29064038      12.69842207       3.25873773       0.01038392      -0.00900915       0.00730810
Cs      -9.47777042       9.40239293       3.24282770      -0.00420067      -0.00223969       0.00007945
Pb      -6.23620306      12.47277526       6.49448892       0.01528547      -0.00453543       0.00376512
I       -3.08194073      11.62080695       6.54076739       0.01420329      -0.00200212      -0.00322828
I       -5.44084028      15.59357217       6.63690658      -0.00866359      -0.00099142      -0.01502141
I       -6.12221964      12.25572042       9.74025179      -0.02380353       0.00067569      -0.00077185
Cs      -9.21517270       9.34969462       9.73542139      -0.00666404       0.01011703      -0.00198232
Pb      -6.20440708       6.25167063      13.00451042      -0.00009924       0.00095722       0.00205097
I       -9.32694218      11.67437142      12.91084614       0.00975065       0.00134880       0.00987252
I       -5.40047052       9.36940309      13.17013678      -0.00714458       0.00007430       0.01099687
I       -6.10610908       6.03125442      16.22447714      -0.00246697       0.00658408      -0.00277293
Cs      -3.00584843       9.25878982      16.24364199      -0.00021134      -0.00190724       0.00472697
Pb      -6.19710552       6.25661045      19.47704506      -0.00002777       0.00010516       0.00161594
I       -9.32055257      13.31397267      19.53967544       0.00207334       0.00169899      -0.00193938
I       -7.01491723       9.37288467      19.28253260      -0.00386051      -0.00060678      -0.00327456
I       -6.28484675       6.48601276      22.70981475       0.00338563      -0.00390859      -0.00000566
Cs      -3.21013771       9.39792539      22.72513649       0.00040443      -0.00550730       0.00078881
Pb      -6.21235468      12.49105268      12.98107905       0.01933264       0.00404023      -0.00531524
I       -7.02453033      15.60435593      12.79676590      -0.00298274      -0.00060627      -0.00181160
I       -6.25477892      12.72427120      16.22007266       0.01217752       0.00056153      -0.00623390
Cs      -9.46233557       9.40845508      16.22207975      -0.00281227      -0.00090889       0.00542966
Pb      -6.19871728      12.49038006      19.47690329       0.00694815      -0.00204223      -0.00144985
I       -3.07690527      11.65774270      19.38839196      -0.00366408      -0.00532347       0.01016871
I       -5.38654944      15.61051416      19.64954425       0.00064895       0.00074382       0.00261147
I       -6.09202769      12.26734221      22.71496043      -0.00365585       0.00315012      -0.00008048
Cs      -9.18463643       9.34644872      22.70856910      -0.00206897       0.00579090      -0.00227028
Pb       6.25584263       6.22142959       0.01905955      -0.00004937      -0.00008150      -0.00184888
I        3.11848642      11.63195628      -0.01821295       0.00487353      -0.00450766      -0.00713841
I        7.06920591       9.33904053       0.21335981       0.00268192      -0.00125136       0.00266289
I        6.34698151       6.00574932       3.27041754      -0.00907522       0.00857797       0.00286241
Cs       9.50541894       9.27620517       3.27986156       0.00452231       0.00342240      -0.00259219
Pb       6.26383717       6.22842139       6.49274401       0.00029233       0.00028076      -0.00278013
I        3.09865381      13.29669403       6.73862072      -0.00660362      -0.00054867      -0.00048928
I        5.44846509       9.34275287       6.33810390       0.00275957       0.00024425      -0.00621333
I        6.24907926       6.39051764       9.75987872       0.02258406      -0.01896240      -0.00004577
Cs       9.27313945       9.41145197       9.76495438       0.00612000       0.00276728      -0.00084795
Pb       6.24409624      12.45423199       0.03366659      -0.00737650      -0.00318791       0.00162314
I        9.36479210      13.27506838       0.11626960      -0.00285470       0.00000051      -0.00285290
I        5.42287774      15.57516650      -0.13109791       0.00154009       0.00120559      -0.00333344
I        6.12821042      12.68985668       3.29076111      -0.00009462      -0.00246235       0.00653806
Cs       3.04115097       9.33203456       3.26354639      -0.00092560      -0.00804138      -0.00005605
Pb       6.25383414      12.46525288       6.52734983      -0.01882819       0.00332649       0.00490129
I        9.37003703      11.63923109       6.44810147      -0.00978999       0.00019977      -0.00440379
I        7.05615881      15.58090066       6.72724588       0.00299045      -0.00113103       0.00422201
I        6.35405505      12.23702151       9.76957558       0.01038803       0.00291640       0.00036998
Cs       3.42213322       9.17000127       9.75308300       0.00481645      -0.00157763      -0.00204968
Pb       6.27556483       6.23488183      13.02519201       0.00072017      -0.00070885       0.00303287
I        3.12823265      11.63880307      12.83512862      -0.01135733       0.00325270       0.01200294
I        7.09407545       9.35013708      13.17090132       0.00467838      -0.00110120       0.00141128
I        6.36591247       6.01430293      16.24762004      -0.01135065       0.00507022      -0.00240732
Cs       9.52336481       9.29370161      16.25944536       0.00658100       0.00072814       0.00244049
Pb       6.28862240       6.23943749      19.49814208       0.00005219       0.00010747       0.00153881
I        3.15352389      13.30814575      19.54307148       0.00142105       0.00654449       0.00412302
I        5.46817933       9.35580267      19.31673992       0.00119222      -0.00088369       0.00202372
I        6.20703653       6.46788888      22.73295917       0.00862657      -0.00512267      -0.00019258
Cs       9.28991020       9.40832061      22.74179210      -0.00064406       0.00086363       0.00007662
Pb       6.28212788      12.46353868      13.01452721      -0.01382097      -0.00448709      -0.00245232
I        9.39382389      13.29018064      13.08472169      -0.01333400      -0.00099836       0.00409217
I        5.47776346      15.58722607      12.87905344       0.01091896      -0.00037178       0.01174043
I        6.15764499      12.69398247      16.24902859      -0.00154395      -0.00845842      -0.00633803
Cs       3.07832416       9.36987774      16.24185871       0.00701037       0.00216410       0.00305961
Pb       6.28220269      12.47550132      19.50124560      -0.00639639       0.00273797      -0.00041652
I        9.39859217      11.65016782      19.42034412      -0.00228751      -0.00142259       0.00296191
I        7.09408775      15.59414567      19.67614268       0.00455471       0.00092405       0.00344914
I        6.35759435      12.25027473      22.74224166      -0.00707979       0.00301770      -0.00021649
Cs       3.31146002       9.31460475      22.72941709      -0.00221269       0.00236696      -0.00249474
Pb       0.00018347      12.47183389      -0.04952633       0.00027511      -0.00126627       0.02541844
I       -3.12553995      17.88187931      -0.03973888      -0.00066900       0.00309715       0.00146913
I        0.82869710      15.57849975       0.20835598       0.00541654       0.00260324      -0.00452257
I        0.12371115      12.26824451       3.25176162      -0.00333061      -0.00319691       0.03446487
Cs       3.29188032      15.55407449       3.27064731       0.00187896      -0.00098216      -0.00306604
Pb       0.01786048      12.44762088       6.29670005      -0.00187588      -0.00143776       0.03293532
I       -3.11383970      19.51896839       6.60553837       0.00013035       0.00345273      -0.00367102
I       -0.84209099      15.55040537       6.48538166      -0.00447089      -0.01019648      -0.00029748
I       -3.05221764      13.32939284      12.90806386       0.00708339       0.00028745      -0.00434234
Cs       3.26127030      15.87533563       9.74967784       0.01691375       0.01978258      -0.00181777
Pb      -0.00142072      18.69772573       0.02503031       0.00211602      -0.00602769       0.00091326
I        3.11903090      19.51794759       0.11340822       0.00099785       0.00116780      -0.00307118
I       -0.82747101      21.81504788      -0.13376140      -0.00245566      -0.00207745      -0.00316837
I       -0.09541654      18.88937931       3.28030992      -0.00149381      -0.00997845       0.00719189
Cs      -3.24379920      15.67049687       3.27347753       0.01067059       0.00324525       0.00191881
Pb       0.00448410      18.70935592       6.52085715      -0.00464496      -0.01825715       0.00580144
I        3.12681914      17.89818828       6.41164365      -0.00092740       0.01033944      -0.01539551
I        0.81751257      21.81720147       6.70451942       0.00098705      -0.01011832      -0.00370239
I        0.10008575      18.45964919       9.76173673      -0.00450714       0.02132782      -0.00012804
Cs      -3.20355304      15.79377598       9.75497153      -0.02537448       0.03070514      -0.00207180
Pb       0.04238756      12.46207958      13.21217805       0.00224560       0.00022960      -0.03293635
I       -3.09900298      17.92112885      12.97322072       0.00149278       0.01139307       0.02230072
I        0.88266852      15.56638226      13.03994997       0.00523811      -0.01333580       0.00214147
I        0.09475602      12.25901504      16.25768091      -0.00138814      -0.00356201      -0.03575865
Cs       3.28490354      15.59255021      16.23981954      -0.00639253       0.00889036      -0.00011107
Pb       0.03588298      12.49201718      19.55829315       0.00088343      -0.00071837      -0.02478646
I       -3.08991360      19.54164029      19.56085036      -0.00194375       0.00333883      -0.00106161
I       -0.79163768      15.59695287      19.29897247      -0.00680263       0.00262021       0.00214739
I       -0.04439703      12.70377562      22.72804479       0.00227466       0.00379778       0.00049494
Cs       3.07294679      15.67529259      22.72938761       0.00368928      -0.00210342      -0.00209365
Pb       0.02403427      18.72168196      13.00574742       0.00490361      -0.01713383      -0.00547028
I        3.14405130      19.52837771      13.06797330      -0.00044069       0.00255671      -0.00190750
I       -0.79869877      21.82861563      12.82824908       0.00096776      -0.01094802       0.00369313
I       -0.05773138      18.91126382      16.24371515       0.01202968      -0.00753565      -0.00711527
Cs      -3.25856233      15.64445150      16.23250613      -0.00228957      -0.01152446       0.00346071
Pb       0.02997376      18.71904173      19.49911089      -0.00281484      -0.00552144      -0.00095748
I        3.15289849      17.89350426      19.41642962       0.00140382       0.00344836       0.00427189
I        0.84626488      21.83505785      19.66919318       0.00384971      -0.00253716       0.00395924
I        0.12593195      18.47931890      22.73528678      -0.00541474       0.00071271      -0.00017818
Cs      -2.97865506      15.59947097      22.72916786      -0.00290226       0.00305319      -0.00155038
159
Lattice="12.468877150473974 12.455658885840549 0.03660578085816481 -12.50093584829824 12.487541340136369 -0.009235160890552896 0.04511834328209048 0.027282498203389086 25.94770021635299" Properties=species:S:1:pos:R:3:forces_eV_per_A:R:3 energy_eV=-125820.38919109912 fmax_eV_per_A=0.04774026566830805 source=q0_final_ns1.out.gz ionic_step=6 tot_charge=0.0 pbc="T T T"
Pb       0.01845527      -0.00719519       0.00749703      -0.00030390       0.00072865       0.00295960
I       -3.10909111       5.41377899      -0.05430627       0.00062632      -0.00160668       0.00199132
I        0.83676741       3.11673926       0.19133730       0.00054019      -0.00101327       0.00169410
I        0.11627287      -0.23158956       3.26048026      -0.00475500       0.00105518      -0.00195172
Cs       3.27049283       3.05492964       3.25933697       0.00355275      -0.00233328      -0.00100993
Pb       0.02522284      -0.00188264       6.49413739      -0.00056924      -0.00085849       0.00061012
I       -3.09851401       7.03176398       6.55158117      -0.00038927      -0.00575901      -0.00592922
I       -0.79302434       3.11920659       6.31890389       0.00002057       0.01295759      -0.00752151
I       -0.04954736       0.22306576       9.74080984       0.00588628      -0.00358720      -0.00062272
Cs       3.01787199       3.15811223       9.75112120      -0.00608426      -0.01058935      -0.00029568
Pb       0.01239876       6.23197710       0.01450159      -0.00178023       0.00171647       0.00120945
I        3.13685479       7.04553763       0.08764096      -0.00103461      -0.00302105      -0.00748243
I       -0.82328794       9.35194053      -0.12445856      -0.00594156       0.00664090      -0.00724408
I       -0.06010248       6.49148257       3.26950997       0.00887468       0.00503293       0.00534918
Cs      -3.23326657       3.15277658       3.24806473       0.00102844      -0.00541629       0.00038721
Pb       0.03103064       6.23399582       6.50326672       0.00380960       0.00450483      -0.00061167
I        3.14690604       5.41051416       6.44349841      -0.00234202      -0.00129841       0.00533350
I        0.84143605       9.37981450       6.78428168       0.00131178      -0.00077236      -0.00232171
I        0.11801985       6.00633454       9.74547835      -0.00572302      -0.00857900      -0.00035276
Cs      -2.94206576       3.07790469       9.73765162       0.00630100      -0.00465935      -0.00124621
Pb       0.04777117       0.01096545      12.98716095       0.00116548      -0.00042475      -0.00038155
I       -3.08694228       5.43763820      12.89734365       0.00288118       0.00085232      -0.00070937
I        0.85986359       3.13248397      13.16455681      -0.00130252       0.01331934       0.00728085
I        0.13950996      -0.21770403      16.22081860      -0.00519106       0.00097959       0.00288349
Cs       3.29529250       3.06403711      16.24058132       0.00132155      -0.00117139       0.00179592
Pb       0.05574188       0.01337780      19.47386515      -0.00033013       0.00076233      -0.00329127
I       -3.07643597       7.06881254      19.55163599       0.00249474      -0.00217078       0.00114543
I       -0.76769572       3.13553390      19.29091497      -0.00142876      -0.00121870      -0.00185711
I       -0.02947146       0.24161836      22.71458448       0.00511110      -0.00137297      -0.00022317
Cs       3.05503434       3.18011052      22.72128640      -0.00484396      -0.00300305      -0.00054147
Pb       0.03269797       6.25127192      12.98682981      -0.00353501       0.00601330      -0.00080527
I        3.15941365       7.05065213      13.07267468       0.00088343      -0.00413176      -0.00143853
I       -0.78986571       9.39556730      12.70130710      -0.00055742      -0.00189516      -0.00154858
I       -0.04998950       6.50656706      16.22168504       0.00370393       0.00371833      -0.00477891
Cs      -3.20747060       3.17057631      16.22858868      -0.00033836      -0.00596316       0.00274877
Pb       0.05037862       6.25293060      19.47855197       0.00192601       0.00179360      -0.00120610
I        3.16839190       5.42279856      19.39958217      -0.00170310      -0.00218929       0.00287218
I        0.87290525       9.37091986      19.63344682       0.00645167       0.00627066       0.00885334
I        0.14195096       6.04584348      22.72022808      -0.00509336       0.00499771      -0.00046177
Cs      -2.93291689       3.10212974      22.71315997       0.00313597       0.00075308      -0.00145062
Pb      -6.23045582       6.23692673      -0.00500870       0.00033039       0.00020954      -0.00017998
I       -9.35434328      11.65535774      -0.05915272      -0.00211113       0.00033219       0.00157506
I       -5.41614458       9.35262665       0.18099890      -0.00260093       0.00132875      -0.00167944
I       -6.12899833       6.01517384       3.24833211      -0.00184785       0.00360752       0.00111894
Cs      -3.04386086       9.27557143       3.26748512      -0.00577058       0.00656943       0.00012136
Pb      -6.21812897       6.24017305       6.46701598      -0.00151901       0.00147581      -0.00249577
I       -9.34457044      13.29750629       6.57262374       0.01228525      -0.00280225      -0.00813291
I       -7.04089404       9.35618039       6.32579898      -0.00294983      -0.00051833      -0.00105981
I       -6.33993113       6.43848558       9.73523399      -0.00563354      -0.01096139      -0.00091506
Cs      -3.40662229       9.21117683       9.75836466      -0.00811260      -0.00830698      -0.00023037
Pb      -6.23533804      12.47439420       0.00489180       0.00097162       0.00188076       0.00346559
I       -3.11310631      13.30129836       0.10347478       0.00830903       0.00438785      -0.00590454
I       -7.06163320      15.59127817      -0.15675962      -0.00301539      -0.00098936      -0.00294237
I       -6.28802501      12.69605634       3.26108453       0.01117299      -0.00888573       0.00427600
Cs      -9.47866610       9.40161089       3.24261839      -0.00454828      -0.00194478       0.00033501
Pb      -6.23030379      12.47188784       6.49679964       0.00542991      -0.00578910      -0.00256159
I       -3.07617042      11.62096126       6.53915404       0.00332804      -0.00539443       0.00065229
I       -5.44350892      15.59279714       6.63270863      -0.00609969       0.00139431      -0.01359085
I       -6.12895454      12.25610255       9.73991088      -0.02036365      -0.00034993      -0.00017612
Cs      -9.21657571       9.35207431       9.73475737      -0.00745260       0.01046568      -0.00120353
Pb      -6.20395160       6.25195153      13.00488049      -0.00217747       0.00070860       0.00259707
I       -9.32478180      11.67430574      12.91350711       0.01041503       0.00340748       0.00950460
I       -5.40277018       9.36934855      13.17340837      -0.00454854       0.00038695       0.00883534
I       -6.10682185       6.03308179      16.22339343      -0.00214790       0.00598964      -0.00047745
Cs      -3.00588179       9.25824263      16.24485763      -0.00024991      -0.00151361       0.00506739
Pb      -6.19704198       6.25671855      19.47777420      -0.00030930      -0.00024297       0.00011699
I       -9.31942228      13.31465841      19.53928232      -0.00036175       0.00050831      -0.00233713
I       -7.01609683       9.37222543      19.28152585      -0.00265029       0.00162468      -0.00220112
I       -6.28389051       6.48487095      22.70982578       0.00304444      -0.00329950      -0.00006325
Cs      -3.21006393       9.39636425      22.72532399       0.00055047      -0.00459533       0.00082867
Pb      -6.20528020      12.49183577      12.97858992       0.00860703       0.00522731       0.00002957
I       -7.02561498      15.60471803      12.79633584      -0.00114594      -0.00264618      -0.00181314
I       -6.25165749      12.72435074      16.21825672       0.01273288       0.00084821      -0.00452257
Cs      -9.46281459       9.40810014      16.22394484      -0.00351058      -0.00091506       0.00362834
Pb      -6.19588568      12.48967410      19.47682658       0.00102227      -0.00098987      -0.00293286
I       -3.07968865      11.65645936      19.39133402       0.00545640      -0.00564023       0.00854918
I       -5.38631097      15.61115517      19.65041142       0.00047437      -0.00130663       0.00163779
I       -6.09296360      12.26827052      22.71513435      -0.00346816       0.00267883      -0.00091711
Cs      -9.18518895       9.34789814      22.70788634      -0.00158791       0.00548905      -0.00159897
Pb       6.25584310       6.22146022       0.01838800      -0.00006942      -0.00031316      -0.00073096
I        3.12201405      11.63085399      -0.02045571      -0.00626449      -0.00480179      -0.00496763
I        7.06997564       9.33801462       0.21414389       0.00201909       0.00189850       0.00193373
I        6.34451501       6.00811344       3.27143446      -0.00845173       0.00782670       0.00096879
Cs       9.50633945       9.27700605       3.27898324       0.00509541       0.00324602      -0.00209211
Pb       6.26366391       6.22862123       6.49208329       0.00135574      -0.00026868      -0.00281099
I        3.09525086      13.29574416       6.73771672       0.00158277       0.00343962       0.00331287
I        5.44945300       9.34291168       6.33610268       0.00106521      -0.00036895      -0.00427446
I        6.25527660       6.38520207       9.75991735       0.02057731      -0.01662321      -0.00027048
Cs       9.27431603       9.41195535       9.76463237       0.00745209       0.00306116      -0.00045303
Pb       6.24114888      12.45319549       0.03413454      -0.00134314      -0.00192139       0.00163137
I        9.36310366      13.27524234       0.11551860       0.00125058      -0.00084564      -0.00301102
I        5.42328209      15.57624368      -0.13214950       0.00120251      -0.00234665      -0.00240141
I        6.12829295      12.68914488       3.29242897      -0.00104952      -0.00194735       0.00577316
Cs       3.04091282       9.32990797       3.26377834      -0.00086081      -0.00770997      -0.00168716
Pb       6.24702634      12.46587169       6.52935115      -0.00870267       0.00444518       0.00143545
I        9.36824619      11.63886959       6.44671726      -0.01209756       0.00237570      -0.00329770
I        7.05727946      15.58112510       6.72835918       0.00078213      -0.00308147       0.00383737
I        6.35716122      12.23789103       9.76996536       0.00783749       0.00226026      -0.00088292
Cs       3.42306811       9.16990785       9.75241558       0.00619610      -0.00281433      -0.00140357
Pb       6.27559261       6.23461730      13.02589949       0.00135497      -0.00031882       0.00316914
I        3.12337766      11.64059501      12.83921832      -0.00147453      -0.00169924       0.00703274
I        7.09570537       9.34944533      13.17154714       0.00237287       0.00054893       0.00012881
I        6.36288319       6.01579632      16.24659957      -0.01086085       0.00415567      -0.00001054
Cs       9.52486601       9.29377374      16.26042602       0.00701191       0.00067877       0.00137297
Pb       6.28860420       6.23937064      19.49876804       0.00014013       0.00046897       0.00027588
I        3.15565969      13.30992877      19.54443800      -0.00701320       0.00592716       0.00244152
I        5.46849099       9.35526943      19.31722597       0.00091274       0.00060678       0.00240372
I        6.20936432       6.46640893      22.73296808       0.00815323      -0.00438810      -0.00042320
Cs       9.28971698       9.40844595      22.74181896      -0.00094797       0.00099013       0.00007739
Pb       6.27666040      12.46251825      13.01282813      -0.00422381      -0.00502985       0.00240064
I        9.39050880      13.29018588      13.08606651      -0.01274162      -0.00261944       0.00277448
I        5.48105984      15.58702146      12.88251158       0.00801644       0.00023963       0.00976119
I        6.15740111      12.69173284      16.24697165      -0.00273025      -0.00820233      -0.00347433
Cs       3.08016767       9.37048662      16.24269291       0.00651723       0.00179000       0.00305858
Pb       6.27980837      12.47635073      19.50147770      -0.00188745       0.00187305      -0.00223712
I        9.39714673      11.64956160      19.42111232       0.00122282      -0.00020029       0.00316014
I        7.09535591      15.59470529      19.67719823       0.00360700      -0.00051499       0.00265055
I        6.35563533      12.25113918      22.74206008      -0.00677049       0.00269632       0.00035661
Cs       3.31083492       9.31525467      22.72868596      -0.00185017       0.00223377      -0.00191496
Pb       0.00056691      12.47133566      -0.03921154      -0.00108012      -0.00044274       0.00718469
I       -3.12611962      17.88281967      -0.03945844       0.00120945       0.00220369       0.00189413
I        0.83006646      15.58103895       0.20692008       0.00544791      -0.00643290      -0.00316709
I        0.12292560      12.26717506       3.25738961      -0.00352447      -0.00206511       0.04518946
Cs       3.29238834      15.55378383       3.26989925       0.00169076      -0.00087212      -0.00362397
Pb       0.01727768      12.44690087       6.30999321      -0.00123850       0.00068391       0.01308897
I       -3.11406556      19.52016878       6.60450507       0.00107446       0.00163651      -0.00340440
I       -0.84273234      15.54632772       6.48464471      -0.00686562      -0.00281562       0.00296937
I       -3.04911255      13.32875945      12.90765943       0.00080141       0.00390808      -0.00793648
Cs       3.26549974      15.88037339       9.74911297       0.01691966       0.01970622      -0.00143982
Pb      -0.00064091      18.69515180       0.02463618       0.00080373      -0.00028668       0.00389754
I        3.11973090      19.51826076       0.11262318      -0.00098499       0.00099270      -0.00326170
I       -0.82843071      21.81388854      -0.13476168      -0.00088986       0.00050779      -0.00233662
I       -0.09575553      18.88684656       3.28247330      -0.00175169      -0.01060117       0.00494706
Cs      -3.24089182      15.67125963       3.27406540       0.00945960       0.00334321       0.00059007
Pb       0.00358216      18.70252267       6.52387242      -0.00594568      -0.00740966      -0.00156992
I        3.12649878      17.90134062       6.40726648      -0.00056127       0.00742046      -0.01341602
I        0.81837411      21.81482124       6.70359989      -0.00197641      -0.01030164      -0.00414179
I        0.09880188      18.46585876       9.76183522      -0.00392093       0.01736935      -0.00068880
Cs      -3.20987089      15.80149359       9.75427455      -0.02536831       0.03095223      -0.00100993
Pb       0.04328259      12.46195881      13.19837567       0.00031213       0.00130432      -0.01121155
I       -3.09806450      17.92466586      12.97938994      -0.00102099       0.00773619       0.02023921
I        0.88347838      15.56114631      13.04120063       0.00784726      -0.00400526      -0.00130252
I        0.09453569      12.25782783      16.25210210      -0.00214764      -0.00236439      -0.04763329
Cs       3.28313921      15.59490157      16.23976025      -0.00561992       0.00828410       0.00060498
Pb       0.03601882      12.49145802      19.54839595       0.00125804       0.00095671      -0.00761664
I       -3.09105599      19.54252175      19.56065679       0.00103384       0.00290560      -0.00136089
I       -0.79352864      15.59974944      19.29970819      -0.00619405      -0.00750402       0.00124596
I       -0.04396701      12.70513794      22.72802680       0.00313700       0.00179437       0.00093691
Cs       3.07404640      15.67494320      22.72884196       0.00251840      -0.00266032      -0.00183834
Pb       0.02500320      18.71509722      13.00267303       0.00624701      -0.00625138       0.00251840
I        3.14376898      19.52936295      13.06767561       0.00054096       0.00076593      -0.00275957
I       -0.79891564      21.82612663      12.82925610       0.00329590      -0.01158411       0.00365148
I       -0.05463456      18.90935680      16.24135195       0.01214795      -0.00816222      -0.00384457
Cs      -3.25908995      15.64127030      16.23350240      -0.00249911      -0.01048367       0.00335195
Pb       0.02903156      18.71675601      19.49968925      -0.00159100      -0.00049571      -0.00479742
I        3.15393163      17.89448641      19.41758667      -0.00174141       0.00275622       0.00417496
I        0.84762930      21.83337969      19.67043936       0.00184245       0.00181494       0.00291923
I        0.12447345      18.47952099      22.73519870      -0.00512781       0.00035713       0.00000437
Cs      -2.97958872      15.60043055      22.72865531      -0.00165116       0.00210265      -0.00089629
159
Lattice="12.468877150473974 12.455658885840549 0.03660578085816481 -12.50093584829824 12.487541340136369 -0.009235160890552896 0.04511834328209048 0.027282498203389086 25.94770021635299" Properties=species:S:1:pos:R:3:forces_eV_per_A:R:3 energy_eV=-125820.39168094094 fmax_eV_per_A=0.059849205236631384 source=q0_final_ns1.out.gz ionic_step=7 tot_charge=0.0 pbc="T T T"
Pb       0.01839058      -0.00716869       0.00750003       0.00057516       0.00133672       0.00688979
I       -3.10912775       5.41368103      -0.05418460       0.00221655      -0.00173832       0.00242635
I        0.83689375       3.11691107       0.19148619      -0.00172135      -0.00545408       0.00082301
I        0.11591384      -0.23149146       3.26070265      -0.00445547       0.00065537      -0.00947323
Cs       3.27077581       3.05481913       3.25920803       0.00370985      -0.00298968      -0.00022703
Pb       0.02504536      -0.00185177       6.49407410       0.00222349      -0.00267626       0.00242147
I       -3.09856595       7.03121141       6.55104559      -0.00020749      -0.00211730      -0.00364814
I       -0.79317983       3.12000301       6.31824085       0.00409962       0.01231841      -0.00460022
I       -0.04909163       0.22275149       9.74079112       0.00535021      -0.00256056      -0.00103898
Cs       3.01747189       3.15744945       9.75108861      -0.00632029      -0.01207673      -0.00000360
Pb       0.01219712       6.23240764       0.01459622       0.00008870      -0.00590145       0.00160000
I        3.13690192       7.04524115       0.08706119      -0.00368979      -0.00103127      -0.00679620
I       -0.82377233       9.35183100      -0.12508924      -0.00448992       0.01900200      -0.00400552
I       -0.05944874       6.49178533       3.26993584       0.00852989       0.00688516       0.00230679
Cs      -3.23321431       3.15241826       3.24809503       0.00055253      -0.00554073      -0.00023217
Pb       0.03128814       6.23495202       6.50344857       0.00397673      -0.00960718      -0.00492598
I        3.14694340       5.41031448       6.44382103      -0.00582226       0.00131692       0.00663113
I        0.84124632       9.38034230       6.78380146       0.00830466      -0.01448791       0.00492058
I        0.11759383       6.00559880       9.74543839      -0.00536924      -0.00549368      -0.00005374
Cs      -2.94167209       3.07764821       9.73750294       0.00695792      -0.00578035      -0.00011467
Pb       0.04786069       0.01110007      12.98722750       0.00105955      -0.00368748      -0.00195610
I       -3.08690509       5.43762497      12.89732786       0.00542811       0.00278990      -0.00118451
I        0.85990792       3.13316984      13.16518472      -0.00485399       0.01536646       0.00485450
I        0.13912758      -0.21761741      16.22063222      -0.00508230       0.00056513       0.01091305
Cs       3.29541268       3.06401657      16.24077987       0.00138068      -0.00191701       0.00074073
Pb       0.05576416       0.01344605      19.47384941      -0.00129506       0.00056050      -0.00742303
I       -3.07651027       7.06862175      19.55176436       0.00767526      -0.00117602       0.00012341
I       -0.76792078       3.13574381      19.29073264       0.00154626      -0.00682705      -0.00036355
I       -0.02908519       0.24149021      22.71457795       0.00481079      -0.00079704      -0.00038644
Cs       3.05470121       3.17988340      22.72122297      -0.00502651      -0.00258190       0.00002031
Pb       0.03247507       6.25238272      12.98657383      -0.00409757      -0.00917473       0.00310409
I        3.15944052       7.05020573      13.07266746       0.00206434      -0.00008665      -0.00366562
I       -0.78961149       9.39600035      12.70149716      -0.00771100      -0.01484709      -0.00847564
I       -0.04969911       6.50678970      16.22131513       0.00318894       0.00535946      -0.00229702
Cs      -3.20749350       3.17017808      16.22888177      -0.00088909      -0.00602898       0.00087006
Pb       0.05060574       6.25339845      19.47841406      -0.00033681      -0.00669952      -0.00073971
I        3.16846463       5.42264294      19.39977650      -0.00551682      -0.00182034       0.00346122
I        0.87342946       9.37069664      19.63420349       0.00484782       0.02103317       0.00529596
I        0.14157529       6.04624266      22.72023599      -0.00491235       0.00428397      -0.00122256
Cs      -2.93270666       3.10218896      22.71303514       0.00334295       0.00093922      -0.00064123
Pb      -6.23045196       6.23691051      -0.00508725       0.00068546       0.00068031       0.00154035
I       -9.35414036      11.65532800      -0.05907426      -0.00872658       0.00177920       0.00243612
I       -5.41637145       9.35253939       0.18087137      -0.00161954       0.00529802      -0.00177612
I       -6.12915142       6.01547789       3.24850201      -0.00131692       0.00252919      -0.00194864
Cs      -3.04429436       9.27608386       3.26754545      -0.00523117       0.00564023      -0.00133826
Pb      -6.21821341       6.24015069       6.46686928      -0.00163239       0.00375690      -0.00276985
I       -9.34376826      13.29742269       6.57199449       0.01113133      -0.00584103      -0.00736775
I       -7.04127702       9.35616110       6.32562594       0.00115031      -0.00114286       0.00112871
I       -6.34036697       6.43759416       9.73519178      -0.00480385      -0.00829618      -0.00131923
Cs      -3.40715720       9.21061651       9.75830936      -0.00920352      -0.00887545       0.00065126
Pb      -6.23499946      12.47457926       0.00493847      -0.00582458       0.00042166       0.00767911
I       -3.11318342      13.30160532       0.10296761       0.02212974       0.00453543      -0.00364223
I       -7.06187253      15.59139843      -0.15700977      -0.00202706      -0.00498460      -0.00195558
I       -6.28724698      12.69540389       3.26153564       0.01231096      -0.00867619      -0.00066772
Cs      -9.47894718       9.40142184       3.24259202      -0.00498023      -0.00153109       0.00081041
Pb      -6.22927564      12.47155674       6.49703484      -0.00846330      -0.00750736      -0.01130026
I       -3.07528216      11.62077812       6.53895839      -0.01280667      -0.01048085       0.00624701
I       -5.44409160      15.59273298       6.63162753      -0.00234279       0.00453106      -0.01157408
I       -6.13062004      12.25614075       9.73985477      -0.01540219      -0.00185454       0.00062941
Cs      -9.21703098       9.35277487       9.73462402      -0.00864842       0.01101769      -0.00003805
Pb      -6.20395406       6.25201557      13.00501795      -0.00478277       0.00033013       0.00310126
I       -9.32415529      11.67442399      12.91422622       0.01008567       0.00642827       0.00899321
I       -5.40324793       9.36935442      13.17417948      -0.00077236       0.00087006       0.00560501
I       -6.10699972       6.03355179      16.22324212      -0.00168330       0.00505993       0.00310229
Cs      -3.00589640       9.25811102      16.24521365      -0.00038104      -0.00097548       0.00537592
Pb      -6.19704293       6.25672735      19.47787710      -0.00064946      -0.00062452      -0.00193681
I       -9.31926784      13.31476972      19.53914225      -0.00364582      -0.00127578      -0.00296243
I       -7.01634846       9.37218576      19.28131332      -0.00081787       0.00464778      -0.00058878
I       -6.28364685       6.48459351      22.70982437       0.00252354      -0.00236696      -0.00017484
Cs      -3.21003580       9.39598422      22.72537892       0.00070448      -0.00335812       0.00085489
Pb      -6.20398281      12.49212858      12.97824314      -0.00683656       0.00671932       0.00750197
I       -7.02580126      15.60468774      12.79621469       0.00148970      -0.00527359      -0.00178897
I       -6.25075408      12.72439388      16.21786563       0.01349007       0.00130175      -0.00155475
Cs      -9.46300336       9.40800771      16.22433987      -0.00452566      -0.00097573       0.00100633
Pb      -6.19546337      12.48954503      19.47671218      -0.00759864       0.00061347      -0.00500645
I       -3.07987231      11.65607925      19.39204743       0.01827746      -0.00606960       0.00604672
I       -5.38626052      15.61120111      19.65058677       0.00013138      -0.00410991       0.00014450
I       -6.09321579      12.26849733      22.71512844      -0.00321696       0.00198181      -0.00204788
Cs      -9.18531407       9.34829332      22.70773820      -0.00082712       0.00516715      -0.00060370
Pb       6.25584256       6.22145481       0.01827067      -0.00005554      -0.00057618       0.00087726
I        3.12227398      11.63052632      -0.02093579      -0.02187520      -0.00524094      -0.00157069
I        7.07014940       9.33793187       0.21431621       0.00102099       0.00617091       0.00081607
I        6.34386634       6.00872380       3.27159223      -0.00750839       0.00666456      -0.00210805
Cs       9.50664451       9.27722717       3.27878057       0.00590891       0.00303416      -0.00126190
Pb       6.26367992       6.22864559       6.49189588       0.00262998      -0.00089629      -0.00262998
I        3.09483976      13.29574793       6.73771468       0.01323424       0.00948300       0.00877080
I        5.44962317       9.34291540       6.33567357      -0.00138788      -0.00128452      -0.00135034
I        6.25688105       6.38386858       9.75991460       0.01760692      -0.01307817      -0.00053890
Cs       9.27474048       9.41212573       9.76456991       0.00932873       0.00349104       0.00010901
Pb       6.24070143      12.45298793       0.03426525       0.00748860       0.00002160       0.00183397
I        9.36290181      13.27523447       0.11530073       0.00682885      -0.00208619      -0.00325373
I        5.42337889      15.57631362      -0.13237987       0.00077904      -0.00724331      -0.00099913
I        6.12825800      12.68897975       3.29283874      -0.00243432      -0.00115185       0.00400424
Cs       3.04085137       9.32932897       3.26374350      -0.00071502      -0.00731299      -0.00387080
Pb       6.24576335      12.46611537       6.52968307       0.00586314       0.00591302      -0.00337457
I        9.36761799      11.63891248       6.44640557      -0.01388704       0.00559703      -0.00165708
I        7.05745275      15.58106411       6.72864606      -0.00241838      -0.00548365       0.00321336
I        6.35786886      12.23809055       9.76999483       0.00414693       0.00126653      -0.00247931
Cs       3.42342544       9.16979458       9.75227350       0.00825941      -0.00465473      -0.00046306
Pb       6.27563756       6.23456986      13.02610470       0.00204634       0.00027074       0.00308738
I        3.12267952      11.64076766      12.84003730       0.01318359      -0.00910813      -0.00011853
I        7.09601512       9.34935826      13.17164161      -0.00085643       0.00270531      -0.00174347
I        6.36206813       6.01615218      16.24647263      -0.01011909       0.00276188       0.00369802
Cs       9.52532227       9.29379902      16.26061603       0.00760764       0.00060961      -0.00036921
Pb       6.28860542       6.23937463      19.49886415       0.00023860       0.00086055      -0.00143622
I        3.15571108      13.31038776      19.54470407      -0.01854923       0.00501314      -0.00028025
I        5.46856540       9.35521866      19.31738692       0.00058775       0.00274594       0.00303210
I        6.20998412       6.46604519      22.73295529       0.00744489      -0.00326582      -0.00073611
Cs       9.28964858       9.40849400      22.74182587      -0.00131332       0.00119171       0.00009616
Pb       6.27573771      12.46219610      13.01266797       0.00935882      -0.00574770       0.00893998
I        9.38964338      13.29008091      13.08635310      -0.01049319      -0.00505890       0.00080347
I        5.48179576      15.58700292      12.88334854       0.00371010       0.00105724       0.00688747
I        6.15725841      12.69112243      16.24659040      -0.00448915      -0.00777630       0.00123053
Cs       3.08065851       9.37063192      16.24291883       0.00589734       0.00118194       0.00281099
Pb       6.27941621      12.47653218      19.50142945       0.00471540       0.00053967      -0.00482699
I        9.39697338      11.64947349      19.42133657       0.00589297       0.00162211       0.00341288
I        7.09565126      15.59476740      19.67743733       0.00213196      -0.00251865       0.00140742
I        6.35511195      12.25135807      22.74204565      -0.00628275       0.00221758       0.00111329
Cs       3.31068553       9.31542657      22.72852019      -0.00126010       0.00204248      -0.00097702
Pb       0.00058751      12.47125043      -0.03751557      -0.00286472       0.00072248      -0.01869681
I       -3.12615975      17.88302667      -0.03934931       0.00378158       0.00091197       0.00255465
I        0.83045113      15.58116208       0.20660938       0.00545280      -0.01894106      -0.00110018
I        0.12269351      12.26695013       3.25962091      -0.00369030      -0.00045431       0.05623414
Cs       3.29252227      15.55371129       3.26965898       0.00145010      -0.00071425      -0.00429580
Pb       0.01715774      12.44684090       6.31245428      -0.00014321       0.00405386      -0.01227933
I       -3.11406759      19.52039038       6.60423392       0.00227748      -0.00092071      -0.00305653
I       -0.84307512      15.54567961       6.48465470      -0.01049139       0.00806658       0.00766086
I       -3.04866203      13.32882589      12.90730864      -0.00830338       0.00940175      -0.01312857
Cs       3.26668649      15.88177927       9.74898175       0.01682453       0.01941672      -0.00087700
Pb      -0.00050650      18.69478934       0.02471292      -0.00110043       0.00801927       0.00791283
I        3.11979656      19.51833820       0.11239307      -0.00374995       0.00075282      -0.00352421
I       -0.82859288      21.81373535      -0.13498271       0.00146527       0.00399190      -0.00106058
I       -0.09586868      18.88610382       3.28292537      -0.00217644      -0.01144115       0.00115365
Cs      -3.24014720      15.67148793       3.27415569       0.00797428       0.00361369      -0.00118065
Pb       0.00324740      18.70129726       6.52423430      -0.00761355       0.00800513      -0.01197440
I        3.12643024      17.90203749       6.40617259      -0.00019952       0.00315989      -0.01051350
I        0.81841600      21.81416311       6.70331457      -0.00638765      -0.00940844      -0.00483779
I        0.09848103      18.46734214       9.76182767      -0.00308224       0.01167512      -0.00138968
Cs      -3.21165209      15.80367812       9.75414551      -0.02529914       0.03126050       0.00056050
Pb       0.04340341      12.46199739      13.19589127      -0.00282256       0.00301642       0.01639875
I       -3.09796183      17.92542311      12.98098350      -0.00428037       0.00240141       0.01732075
I        0.88388091      15.56030548      13.04132431       0.01176923       0.00988641      -0.00620227
I        0.09442290      12.25757314      16.24981466      -0.00333112      -0.00073354      -0.05975193
Cs       3.28269360      15.59553019      16.23978069      -0.00460587       0.00760018       0.00145550
Pb       0.03607935      12.49141001      19.54675092       0.00168073       0.00321954       0.01692300
I       -3.09117995      19.54274293      19.56057853       0.00521137       0.00224766      -0.00188539
I       -0.79401464      15.59987544      19.29985153      -0.00525765      -0.02140186      -0.00020415
I       -0.04379098      12.70538908      22.72804767       0.00437319      -0.00109452       0.00131152
Cs       3.07428056      15.67480304      22.72870465       0.00084127      -0.00347793      -0.00140665
Pb       0.02536063      18.71394089      13.00233199       0.00801104       0.00900658       0.01366541
I        3.14375328      19.52952670      13.06753505       0.00191701      -0.00168742      -0.00398238
I       -0.79881957      21.82540860      12.82953414       0.00677974      -0.01128843       0.00362268
I       -0.05375956      18.90878928      16.24091000       0.01234952      -0.00900760       0.00133286
Cs      -3.25925763      15.64044643      16.23376661      -0.00289429      -0.00909168       0.00307890
Pb       0.02884713      18.71642898      19.49960990       0.00022497       0.00686767      -0.00993526
I        3.15401498      17.89471940      19.41790128      -0.00610997       0.00176995       0.00400886
I        0.84787665      21.83319570      19.67071407      -0.00120508       0.00765263       0.00128889
I        0.12408412      18.47955627      22.73518521      -0.00471309      -0.00014887       0.00022343
Cs      -2.97976857      15.60063622      22.72855437       0.00019540       0.00071142       0.00005554
159
Lattice="12.468877150473974 12.455658885840549 0.03660578085816481 -12.50093584829824 12.487541340136369 -0.009235160890552896 0.04511834328209048 0.027282498203389086 25.94770021635299" Properties=species:S:1:pos:R:3:forces_eV_per_A:R:3 energy_eV=-125820.3922794554 fmax_eV_per_A=0.05753248130957588 source=q0_final_ns1.out.gz ionic_step=8 tot_charge=0.0 pbc="T T T"
Pb       0.01834384      -0.00712605       0.00759558       0.00079164       0.00134700       0.00701963
I       -3.10912839       5.41356825      -0.05403843       0.00234639      -0.00177792       0.00253665
I        0.83697582       3.11698443       0.19163028      -0.00212527      -0.00584412       0.00073996
I        0.11552906      -0.23139594       3.26076260      -0.00435982       0.00053993      -0.01006716
Cs       3.27108327       3.05467448       3.25909385       0.00357640      -0.00317608       0.00012418
Pb       0.02492101      -0.00186371       6.49404513       0.00257933      -0.00281947       0.00240321
I       -3.09861904       7.03069458       6.55051824      -0.00030596      -0.00147607      -0.00317557
I       -0.79324682       3.12085195       6.31759041       0.00490258       0.01052070      -0.00393225
I       -0.04860610       0.22243332       9.74076057       0.00526793      -0.00244075      -0.00101919
Cs       3.01701995       3.15667597       9.75106065      -0.00642493      -0.01239889       0.00007816
Pb       0.01202463       6.23269668       0.01470369       0.00055973      -0.00721709       0.00164319
I        3.13688811       7.04496321       0.08644457      -0.00396696      -0.00078624      -0.00666044
I       -0.82426568       9.35201330      -0.12569725      -0.00415387       0.01991500      -0.00314986
I       -0.05874178       6.49215974       3.27032762       0.00837640       0.00708622       0.00118065
Cs      -3.23316142       3.15201503       3.24811974       0.00055613      -0.00569936      -0.00015658
Pb       0.03157039       6.23565162       6.50353823       0.00367745      -0.01183967      -0.00522885
I        3.14689761       5.41015604       6.44420888      -0.00590608       0.00151952       0.00685019
I        0.84121341       9.38058138       6.78346143       0.00952748      -0.01628717       0.00627632
I        0.11713603       6.00486320       9.74540206      -0.00525816      -0.00513732      -0.00002751
Cs      -2.94121661       3.07733121       9.73737258       0.00709187      -0.00603027       0.00012573
Pb       0.04795412       0.01116492      12.98726528       0.00090169      -0.00405772      -0.00195918
I       -3.08680105       5.43765454      12.89729668       0.00533864       0.00290483      -0.00127090
I        0.85986690       3.13396649      13.16580891      -0.00552042       0.01387367       0.00428706
I        0.13871185      -0.21753416      16.22062364      -0.00503216       0.00044043       0.01146481
Cs       3.29553998       3.06396769      16.24096210       0.00125110      -0.00216590       0.00028694
Pb       0.05576430       0.01351338      19.47373556      -0.00142311       0.00042989      -0.00752228
I       -3.07646318       7.06843397      19.55187815       0.00811286      -0.00111329      -0.00007328
I       -0.76809159       3.13582978      19.29056760       0.00211448      -0.00735310      -0.00014090
I       -0.02866988       0.24136484      22.71456688       0.00475191      -0.00071785      -0.00038258
Cs       3.05432931       3.17964074      22.72116871      -0.00504450      -0.00266263       0.00017149
Pb       0.03222190       6.25322390      12.98639346      -0.00384303      -0.01167281       0.00346250
I        3.15949990       7.04981389      13.07260167       0.00232222       0.00058133      -0.00412225
I       -0.78951327       9.39615392      12.70152757      -0.00900272      -0.01641547      -0.00971749
I       -0.04939411       6.50707026      16.22097024       0.00308121       0.00552530      -0.00135111
Cs      -3.20752800       3.16973474      16.22914642      -0.00086003      -0.00606163       0.00022266
Pb       0.05079701       6.25370855      19.47828024      -0.00085566      -0.00810643      -0.00070937
I        3.16844964       5.42247839      19.40000258      -0.00579707      -0.00178820       0.00355249
I        0.87396179       9.37081422      19.63494141       0.00441690       0.02240459       0.00434696
I        0.14116814       6.04665867      22.72022595      -0.00485861       0.00402532      -0.00125238
Cs      -2.93246701       3.10225347      22.71291863       0.00345016       0.00082944      -0.00042320
Pb      -6.23044007       6.23690513      -0.00512891       0.00064818       0.00067980       0.00194890
I       -9.35408694      11.65533141      -0.05896341      -0.00927243       0.00203914       0.00270609
I       -5.41659829       9.35254282       0.18073024      -0.00155989       0.00575053      -0.00180234
I       -6.12930569       6.01578358       3.24861319      -0.00119813       0.00229497      -0.00267626
Cs      -3.04475768       9.27661773       3.26757765      -0.00514761       0.00527488      -0.00146630
Pb      -6.21830695       6.24018220       6.46670271      -0.00137425       0.00380600      -0.00249963
I       -9.34292579      13.29725367       6.57132660       0.00951514      -0.00642390      -0.00714381
I       -7.04159875       9.35612447       6.32549293       0.00161311      -0.00124853       0.00152904
I       -6.34082570       6.43668676       9.73513579      -0.00466450      -0.00756959      -0.00130766
Cs      -3.40777198       9.20999031       9.75827281      -0.00933593      -0.00879600       0.00087803
Pb      -6.23478865      12.47474448       0.00508803      -0.00691884       0.00002468       0.00789637
I       -3.11292980      13.30194593       0.10246987       0.02300623       0.00456525      -0.00306424
I       -7.06211195      15.59142991      -0.15725625      -0.00181263      -0.00543660      -0.00164988
I       -6.28637165      12.69469547       3.26190693       0.01230324      -0.00854429      -0.00193476
Cs      -9.47927413       9.40123292       3.24258275      -0.00514066      -0.00136268       0.00098165
Pb      -6.22849209      12.47115694       6.49707761      -0.01054898      -0.00731299      -0.01202788
I       -3.07471034      11.62045131       6.53888851      -0.01535514      -0.01130206       0.00727391
I       -5.44463950      15.59273965       6.63049520      -0.00173987       0.00464161      -0.01117761
I       -6.13232510      12.25614358       9.73981262      -0.01460438      -0.00214147       0.00063712
Cs      -9.21756775       9.35356389       9.73450800      -0.00896621       0.01117324       0.00020646
Pb      -6.20401911       6.25207729      13.00518245      -0.00470126       0.00025094       0.00292874
I       -9.32348212      11.67463003      12.91499906       0.00869419       0.00693324       0.00882197
I       -5.40368071       9.36937301      13.17494078      -0.00021417       0.00096596       0.00487198
I       -6.10718279       6.03404213      16.22316338      -0.00160668       0.00479794       0.00381809
Cs      -3.00591863       9.25797836      16.24560638      -0.00056641      -0.00090786       0.00509696
Pb      -6.19705318       6.25672688      19.47793180      -0.00064740      -0.00059675      -0.00237853
I       -9.31918368      13.31484552      19.53897025      -0.00393842      -0.00163831      -0.00314883
I       -7.01658084       9.37221810      19.28111892      -0.00052039       0.00489795      -0.00031547
I       -6.28339428       6.48431404      22.70982035       0.00237004      -0.00214301      -0.00019180
Cs      -3.21000469       9.39560024      22.72544048       0.00053016      -0.00308995       0.00085592
Pb      -6.20294145      12.49248161      12.97804875      -0.00938658       0.00650026       0.00828307
I       -7.02594293      15.60458870      12.79608087       0.00178692      -0.00532064      -0.00180543
I       -6.24975063      12.72445378      16.21750959       0.01340162       0.00142516      -0.00067826
Cs      -9.46324214       9.40791263      16.22469714      -0.00475963      -0.00085772       0.00030185
Pb      -6.19520912      12.48944415      19.47654283      -0.00911173       0.00100119      -0.00493986
I       -3.07976055      11.65565328      19.39276491       0.01946094      -0.00600276       0.00544200
I       -5.38621664      15.61118157      19.65073982      -0.00004679      -0.00434645      -0.00019309
I       -6.09348840      12.26872736      22.71509412      -0.00324293       0.00184605      -0.00210188
Cs      -9.18543660       9.34872071      22.70760208      -0.00078753       0.00510107      -0.00031496
Pb       6.25584268       6.22144262       0.01818589       0.00000206      -0.00054199       0.00136783
I        3.12217646      11.63015842      -0.02137475      -0.02330937      -0.00519851      -0.00073791
I        7.07031752       9.33794771       0.21447855       0.00089217       0.00650335       0.00060935
I        6.34318005       6.00936187       3.27168994      -0.00724871       0.00632723      -0.00284904
Cs       9.50700705       9.27747035       3.27858570       0.00612154       0.00311695      -0.00095002
Pb       6.26372611       6.22865738       6.49169798       0.00246697      -0.00086055      -0.00215304
I        3.09467984      13.29590529       6.73785342       0.01462546       0.01062431       0.00972340
I        5.44975251       9.34289668       6.33527913      -0.00169050      -0.00144419      -0.00070525
I        6.25856543       6.38249681       9.75990526       0.01696054      -0.01223948      -0.00052039
Cs       9.27526164       9.41233123       9.76451639       0.00976428       0.00367282       0.00018178
Pb       6.24042051      12.45281005       0.03440717       0.00887905       0.00052913       0.00179412
I        9.36282318      13.27519397       0.11505896       0.00734410      -0.00230834      -0.00321645
I        5.42347797      15.57626877      -0.13259539       0.00081273      -0.00767217      -0.00068777
I        6.12818969      12.68881891       3.29324455      -0.00254256      -0.00095259       0.00310975
Cs       3.04079033       9.32870345       3.26365316      -0.00051422      -0.00722429      -0.00405720
Pb       6.24473955      12.46641339       6.52992447       0.00838231       0.00572173      -0.00394716
I        9.36689023      11.63904065       6.44610789      -0.01254956       0.00616782      -0.00128427
I        7.05756688      15.58093772       6.72894635      -0.00283053      -0.00539289       0.00307530
I        6.35855678      12.23828368       9.76998859       0.00363297       0.00103615      -0.00244820
Cs       3.42387196       9.16962163       9.75214260       0.00866256      -0.00496557      -0.00030159
Pb       6.27570170       6.23453306      13.02632822       0.00186071       0.00038875       0.00279839
I        3.12227751      11.64077240      12.84075048       0.01539062      -0.01039189      -0.00147890
I        7.09627804       9.34931673      13.17169627      -0.00114748       0.00278553      -0.00209519
I        6.36119458       6.01650596      16.24642391      -0.00988178       0.00243201       0.00441201
Cs       9.52584325       9.29383146      16.26077329       0.00772719       0.00069574      -0.00086569
Pb       6.28861017       6.23938898      19.49892266       0.00025043       0.00079319      -0.00186096
I        3.15548562      13.31086824      19.54492596      -0.01931207       0.00482519      -0.00098730
I        5.46864305       9.35521657      19.31757835       0.00069600       0.00303390       0.00318560
I        6.21064587       6.46567560      22.73293395       0.00730399      -0.00301488      -0.00072608
Cs       9.28956926       9.40855471      22.74183430      -0.00119196       0.00126344       0.00015658
Pb       6.27506278      12.46183016      13.01265526       0.01147098      -0.00547439       0.00937527
I        9.38875973      13.28990496      13.08661492      -0.00855278      -0.00553559       0.00035301
I        5.48249785      15.58700299      12.88419189       0.00294674       0.00113437       0.00632774
I        6.15706250      12.69046588      16.24628900      -0.00467324      -0.00758681       0.00243406
Cs       3.08118336       9.37077347      16.24315592       0.00581815       0.00088703       0.00244435
Pb       6.27914399      12.47669651      19.50131833       0.00591842       0.00015504      -0.00499257
I        9.39690420      11.64942280      19.42158555       0.00626758       0.00194735       0.00334269
I        7.09594038      15.59478532      19.67766559       0.00180440      -0.00272306       0.00106598
I        6.35455421      12.25158506      22.74204902      -0.00607706       0.00212373       0.00118271
Cs       3.31053947       9.31560759      22.72836188      -0.00097985       0.00190956      -0.00072762
Pb       0.00056773      12.47118801      -0.03630911      -0.00285572       0.00095774      -0.02244368
I       -3.12613952      17.88322337      -0.03921168       0.00401246       0.00074793       0.00270814
I        0.83087146      15.58099187       0.20632149       0.00532758      -0.01988954      -0.00065332
I        0.12243371      12.26674597       3.26235769      -0.00363554      -0.00013524       0.05415104
Cs       3.29266507      15.55363925       3.26938135       0.00144239      -0.00055433      -0.00424926
Pb       0.01705175      12.44685094       6.31450122       0.00011004       0.00445289      -0.01391970
I       -3.11403938      19.52057344       6.60394726       0.00228623      -0.00115365      -0.00296371
I       -0.84354297      15.54524377       6.48478752      -0.01112799       0.00988358       0.00850187
I       -3.04839810      13.32903775      12.90679007      -0.00966195       0.01046208      -0.01405082
Cs       3.26798465      15.88331648       9.74885287       0.01652885       0.01922851      -0.00077879
Pb      -0.00040673      18.69458925       0.02489061      -0.00145730       0.00924723       0.00802056
I        3.11979861      19.51841878       0.11213685      -0.00406980       0.00077853      -0.00346636
I       -0.82870966      21.81365735      -0.13518978       0.00194401       0.00429503      -0.00071708
I       -0.09600368      18.88527483       3.28332656      -0.00228185      -0.01134139       0.00006273
Cs      -3.23937476      15.67174749       3.27421338       0.00742946       0.00370702      -0.00147119
Pb       0.00284407      18.70033280       6.52437579      -0.00739501       0.01032375      -0.01302367
I        3.12636296      17.90269920       6.40504942      -0.00033321       0.00249371      -0.00985144
I        0.81834933      21.81347008       6.70298651      -0.00719189      -0.00801773      -0.00492829
I        0.09815106      18.46882785       9.76180282      -0.00291640       0.01075544      -0.00135266
Cs      -3.21360831      15.80608561       9.75404232      -0.02503818       0.03117669       0.00089114
Pb       0.04346434      12.46207648      13.19387593      -0.00330001       0.00311849       0.01793885
I       -3.09792843      17.92612412      12.98265465      -0.00431920       0.00152775       0.01670163
I        0.88442020      15.55973245      13.04133262       0.01239632       0.01225105      -0.00707002
I        0.09426887      12.25733694      16.24698577      -0.00361523      -0.00047077      -0.05741685
Cs       3.28223521      15.59620230      16.23982043      -0.00425209       0.00743923       0.00143030
Pb       0.03615392      12.49141311      19.54556537       0.00152981       0.00335375       0.02054697
I       -3.09121040      19.54297128      19.56047700       0.00571788       0.00213530      -0.00208722
I       -0.79452148      15.59967332      19.29997181      -0.00498948      -0.02240408      -0.00054662
I       -0.04356724      12.70559249      22.72808162       0.00455548      -0.00154498       0.00120096
Cs       3.07449615      15.67462993      22.72856573       0.00054713      -0.00340003      -0.00117885
Pb       0.02579180      18.71304875      13.00223090       0.00785164       0.01113956       0.01466763
I        3.14377003      19.52964908      13.06734889       0.00208182      -0.00182883      -0.00418524
I       -0.79862515      21.82463548      12.82983613       0.00743640      -0.00989309       0.00357538
I       -0.05279591      18.90815249      16.24055405       0.01234207      -0.00891196       0.00251711
Cs      -3.25945380      15.63958610      16.23404364      -0.00302182      -0.00853889       0.00279865
Pb       0.02869036      18.71624208      19.49940188       0.00059033       0.00791977      -0.01008592
I        3.15399724      17.89495306      19.41824018      -0.00655143       0.00168176       0.00392505
I        0.84807063      21.83314333      19.67097080      -0.00182831       0.00812392       0.00084769
I        0.12366808      18.47958485      22.73517616      -0.00461873      -0.00014810       0.00023577
Cs      -2.97992227      15.60083034      22.72846871       0.00041446       0.00065897       0.00028154
159
Lattice="12.468877150473974 12.455658885840549 0.03660578085816481 -12.50093584829824 12.487541340136369 -0.009235160890552896 0.04511834328209048 0.027282498203389086 25.94770021635299" Properties=species:S:1:pos:R:3:forces_eV_per_A:R:3 energy_eV=-125820.39311579736 fmax_eV_per_A=0.051981681490536516 source=q0_final_ns1.out.gz ionic_step=9 tot_charge=0.0 pbc="T T T"
Pb       0.01829022      -0.00704906       0.00780593       0.00076053       0.00138171       0.00659179
I       -3.10909677       5.41339619      -0.05380687       0.00234022      -0.00173627       0.00263075
I        0.83704609       3.11700720       0.19182814      -0.00245463      -0.00560398       0.00064586
I        0.11495898      -0.23126339       3.26070284      -0.00431431       0.00046537      -0.00997922
Cs       3.27154670       3.05444628       3.25895064       0.00364274      -0.00297811       0.00046254
Pb       0.02478988      -0.00191688       6.49402173       0.00256390      -0.00273257       0.00186456
I       -3.09869819       7.03000289       6.54977937      -0.00046023      -0.00093948      -0.00291435
I       -0.79325099       3.12206062       6.31668479       0.00552427       0.00802339      -0.00344631
I       -0.04789035       0.22197922       9.74070862       0.00520546      -0.00237030      -0.00091608
Cs       3.01633818       3.15548760       9.75102789      -0.00622670      -0.01214486       0.00020003
Pb       0.01180628       6.23298479       0.01486897       0.00075205      -0.00741866       0.00168150
I        3.13681065       7.04459147       0.08553490      -0.00408497      -0.00052939      -0.00661339
I       -0.82496913       9.35253078      -0.12652680      -0.00383789       0.01967125      -0.00235102
I       -0.05769227       6.49276550       3.27082717       0.00819076       0.00739835      -0.00019078
Cs      -3.23309638       3.15140863       3.24815110       0.00022317      -0.00553790      -0.00005116
Pb       0.03198811       6.23640008       6.50358421       0.00331312      -0.01284215      -0.00513269
I        3.14676483       5.40997253       6.44482071      -0.00553173       0.00165476       0.00695946
I        0.84132554       9.38064471       6.78311977       0.01044125      -0.01717471       0.00717775
I        0.11645811       6.00382589       9.74535390      -0.00516046      -0.00481619      -0.00001980
Cs      -2.94052375       3.07683542       9.73720724       0.00679543      -0.00580581       0.00031882
Pb       0.04809361       0.01120078      12.98730526       0.00092251      -0.00388802      -0.00147401
I       -3.08660332       5.43773739      12.89724078       0.00480976       0.00295008      -0.00121587
I        0.85972184       3.13515582      13.16668809      -0.00604055       0.01148923       0.00392633
I        0.13809134      -0.21741939      16.22076840      -0.00499077       0.00037101       0.01126580
Cs       3.29573214       3.06387816      16.24120138       0.00133852      -0.00208259      -0.00007148
Pb       0.05574449       0.01361187      19.47349561      -0.00144779       0.00048388      -0.00702220
I       -3.07628623       7.06817181      19.55202400       0.00811929      -0.00105724      -0.00022394
I       -0.76827764       3.13584658      19.29035337       0.00254565      -0.00716207       0.00007199
I       -0.02805494       0.24119223      22.71454686       0.00467967      -0.00060061      -0.00037795
Cs       3.05376649       3.17928911      22.72109967      -0.00501828      -0.00249140       0.00022394
Pb       0.03183649       6.25417145      12.98620451      -0.00361523      -0.01246497       0.00345068
I        3.15961699       7.04931824      13.07245270       0.00252380       0.00115880      -0.00435288
I       -0.78953263       9.39610860      12.70141421      -0.00997228      -0.01705567      -0.01048085
I       -0.04894836       6.50752915      16.22052520       0.00301256       0.00579810      -0.00018435
Cs      -3.20759447       3.16907519      16.22948731      -0.00105004      -0.00570296      -0.00035893
Pb       0.05103626       6.25401158      19.47809321      -0.00104978      -0.00833140      -0.00073636
I        3.16834992       5.42224025      19.40035513      -0.00573947      -0.00165785       0.00365894
I        0.87471819       9.37129086      19.63595660       0.00399987       0.02253418       0.00342780
I        0.14056173       6.04726453      22.72019561      -0.00481028       0.00389214      -0.00122564
Cs      -2.93210160       3.10235427      22.71276353       0.00344271       0.00089860      -0.00023603
Pb      -6.23041688       6.23690483      -0.00515589       0.00057747       0.00057670       0.00206511
I       -9.35413997      11.65537033      -0.05877359      -0.00905543       0.00225280       0.00291512
I       -5.41691677       9.35263075       0.18051536      -0.00144522       0.00585363      -0.00187896
I       -6.12952253       6.01621446       3.24870592      -0.00104155       0.00204866      -0.00334732
Cs      -3.04543350       9.27739147       3.26759745      -0.00481516       0.00496480      -0.00149201
Pb      -6.21844453       6.24026832       6.46644719      -0.00110300       0.00348230      -0.00235667
I       -9.34173326      13.29692851       6.57034170       0.00728574      -0.00685970      -0.00707465
I       -7.04199263       9.35605197       6.32534389       0.00194170      -0.00143570       0.00177586
I       -6.34149408       6.43539450       9.73504536      -0.00448298      -0.00689441      -0.00122873
Cs      -3.40872001       9.20903716       9.75824159      -0.00941975      -0.00882454       0.00108475
Pb      -6.23459712      12.47496132       0.00538584      -0.00696640      -0.00013678       0.00755879
I       -3.11227878      13.30246013       0.10177804       0.02257095       0.00456011      -0.00260864
I       -7.06244687      15.59139377      -0.15759959      -0.00155500      -0.00551990      -0.00140048
I       -6.28503536      12.69364059       3.26233680       0.01238038      -0.00839208      -0.00326427
Cs      -9.47977404       9.40095900       3.24258697      -0.00500440      -0.00146784       0.00111432
Pb      -6.22760296      12.47052662       6.49696712      -0.01114085      -0.00712093      -0.01193609
I       -3.07421375      11.61984456       6.53891446      -0.01703587      -0.01192246       0.00796039
I       -5.44537757      15.59280831       6.62884154      -0.00127321       0.00439710      -0.01098144
I       -6.13476921      12.25611248       9.73976381      -0.01388910      -0.00233430       0.00055407
Cs      -9.21839732       9.35475721       9.73436357      -0.00885025       0.01096190       0.00044583
Pb      -6.20415852       6.25216029      13.00543645      -0.00421224       0.00014141       0.00266649
I       -9.32251873      11.67501002      12.91614846       0.00673346       0.00732276       0.00882454
I       -5.40424435       9.36941075      13.17600605       0.00027279       0.00098936       0.00435134
I       -6.10744477       6.03475239      16.22312840      -0.00149175       0.00452797       0.00442873
Cs      -3.00595133       9.25779104      16.24619294      -0.00048080      -0.00082995       0.00477248
Pb      -6.19707362       6.25672106      19.47796989      -0.00054893      -0.00045971      -0.00241555
I       -9.31912328      13.31491771      19.53869457      -0.00380369      -0.00187099      -0.00329898
I       -7.01688494       9.37232683      19.28086390      -0.00014887       0.00481439      -0.00007302
I       -6.28302827       6.48391842      22.70981131       0.00227286      -0.00194787      -0.00022703
Cs      -3.20995384       9.39505820      22.72553122       0.00054816      -0.00275828       0.00076567
Pb      -6.20170086      12.49303261      12.97791148      -0.01032067       0.00613285       0.00841265
I       -7.02609948      15.60439484      12.79588222       0.00197924      -0.00491749      -0.00171364
I       -6.24823229      12.72455657      16.21705496       0.01336665       0.00155449       0.00033116
Cs      -9.46362013       9.40777138      16.22516153      -0.00463030      -0.00091248      -0.00026868
Pb      -6.19498204      12.48932295      19.47625396      -0.00898035       0.00104155      -0.00475037
I       -3.07933112      11.65500659      19.39378006       0.01964580      -0.00593154       0.00494577
I       -5.38616260      15.61109549      19.65093289      -0.00020800      -0.00431560      -0.00045714
I       -6.09389015      12.26905475      22.71502009      -0.00313032       0.00172213      -0.00206305
Cs      -9.18560014       9.34935264      22.70742156      -0.00052733       0.00492495      -0.00012881
Pb       6.25584347       6.22142062       0.01808951       0.00003600      -0.00046280       0.00139817
I        3.12171234      11.62959887      -0.02194731      -0.02346749      -0.00515995       0.00003600
I        7.07054499       9.33805739       0.21469640       0.00065512       0.00641876       0.00041472
I        6.34217379       6.01028891       3.27176176      -0.00703994       0.00602847      -0.00354478
Cs       9.50756563       9.27783082       3.27832084       0.00591945       0.00300176      -0.00065177
Pb       6.26381300       6.22866842       6.49139865       0.00211319      -0.00062221      -0.00216615
I        3.09468826      13.29628428       6.73818709       0.01514791       0.01151443       0.01029573
I        5.44989287       9.34284726       6.33475636      -0.00195635      -0.00157763      -0.00026662
I        6.26101808       6.38052828       9.75988802       0.01628665      -0.01141467      -0.00043143
Cs       9.27608428       9.41265094       9.76444790       0.00973240       0.00361394       0.00017998
Pb       6.24016617      12.45258522       0.03461786       0.00905671       0.00076413       0.00172804
I        9.36281691      13.27510542       0.11469240       0.00717338      -0.00242249      -0.00322751
I        5.42362071      15.57610106      -0.13288436       0.00084512      -0.00768477      -0.00044789
I        6.12805672      12.68859742       3.29379531      -0.00272691      -0.00077030       0.00194118
Cs       3.04070139       9.32777694       3.26347243      -0.00048697      -0.00704945      -0.00413228
Pb       6.24351167      12.46688322       6.53018594       0.00943698       0.00544868      -0.00403895
I        9.36580359      11.63930901       6.44570005      -0.01044279       0.00663216      -0.00106547
I        7.05766857      15.58070981       6.72938028      -0.00314677      -0.00486093       0.00285752
I        6.35950652      12.23854960       9.76995329       0.00318251       0.00085926      -0.00216281
Cs       3.42459311       9.16931457       9.75197006       0.00897701      -0.00528259      -0.00014218
Pb       6.27580271       6.23449177      13.02665945       0.00147607       0.00047308       0.00253742
I        3.12199815      11.64060763      12.84165369       0.01675819      -0.01140439      -0.00238521
I        7.09660335       9.34929349      13.17173573      -0.00135523       0.00254565      -0.00227594
I        6.35990238       6.01700093      16.24643627      -0.00970437       0.00211679       0.00500054
Cs       9.52663277       9.29387860      16.26096098       0.00745723       0.00056693      -0.00126215
Pb       6.28861842       6.23941635      19.49897442       0.00019823       0.00065846      -0.00193733
I        3.15492142      13.31156664      19.54518990      -0.01898426       0.00462824      -0.00163754
I        5.46875451       9.35526012      19.31788188       0.00071142       0.00317788       0.00337020
I        6.21161981       6.46515036      22.73289638       0.00710833      -0.00275211      -0.00068880
Cs       9.28943938       9.40865146      22.74184843      -0.00134546       0.00125804       0.00021340
Pb       6.27432959      12.46127160      13.01276562       0.01205076      -0.00524994       0.00915107
I        9.38753357      13.28958523      13.08696089      -0.00602718      -0.00587266       0.00006993
I        5.48345301      15.58701926      12.88539183       0.00231811       0.00112100       0.00600250
I        6.15672770      12.68949483      16.24595690      -0.00496300      -0.00737264       0.00369005
Cs       3.08195147       9.37096874      16.24349677       0.00552453       0.00066334       0.00204866
Pb       6.27886486      12.47691093      19.50110810       0.00625344      -0.00011930      -0.00481285
I        9.39689249      11.64939007      19.42196258       0.00600276       0.00222246       0.00331724
I        7.09633800      15.59477083      19.67797557       0.00143236      -0.00274131       0.00077827
I        6.35372918      12.25191301      22.74206992      -0.00602487       0.00202834       0.00118399
Cs       3.31033457       9.31587428      22.72814827      -0.00085309       0.00187845      -0.00047745
Pb       0.00050591      12.47112072      -0.03506529      -0.00267138       0.00106084      -0.02423214
I       -3.12605834      17.88348951      -0.03898920       0.00394973       0.00058081       0.00279865
I        0.83149922      15.58048587       0.20593765       0.00518926      -0.01980135      -0.00034504
I        0.12204334      12.26647609       3.26660646      -0.00346456       0.00001543       0.04911399
Cs       3.29287600      15.55353092       3.26895486       0.00145242      -0.00067517      -0.00413382
Pb       0.01691838      12.44692681       6.31704253       0.00035404       0.00447989      -0.01329518
I       -3.11397963      19.52079567       6.60352367       0.00197949      -0.00126781      -0.00299816
I       -0.84433089      15.54483743       6.48509752      -0.01163013       0.01109920       0.00908242
I       -3.04820582      13.32948615      12.90589087      -0.01046593       0.01131285      -0.01465966
Cs       3.26993011      15.88561450       9.74867248       0.01632753       0.01893720      -0.00072685
Pb      -0.00029299      18.69444003       0.02522590      -0.00146604       0.00916136       0.00760378
I        3.11974455      19.51853301       0.11174879      -0.00409860       0.00070011      -0.00343037
I       -0.82882869      21.81361044      -0.13546732       0.00229600       0.00416596      -0.00044660
I       -0.09621801      18.88401708       3.28382766      -0.00240887      -0.01129023      -0.00113874
Cs      -3.23825657      15.67214302       3.27426227       0.00703094       0.00369673      -0.00167662
Pb       0.00221414      18.69921356       6.52437431      -0.00701628       0.01136865      -0.01323321
I        3.12626655      17.90359555       6.40343336      -0.00048774       0.00191521      -0.00939018
I        0.81814372      21.81248849       6.70247635      -0.00784701      -0.00610894      -0.00511727
I        0.09767554      18.47092503       9.76175538      -0.00280585       0.00995814      -0.00118296
Cs      -3.21653994      15.80970045       9.75392520      -0.02464351       0.03081365       0.00120071
Pb       0.04349471      12.46222097      13.19142585      -0.00350236       0.00296011       0.01702353
I       -3.09793885      17.92705463      12.98509563      -0.00402918       0.00079421       0.01634245
I        0.88532023      15.55918974      13.04123137       0.01287943       0.01391533      -0.00760841
I        0.09400824      12.25701727      16.24258372      -0.00386205      -0.00042500      -0.05183627
Cs       3.28157761      15.59718664      16.23989389      -0.00391708       0.00705408       0.00136628
Pb       0.03626908      12.49146221      19.54432642       0.00130895       0.00327019       0.02241359
I       -3.09116877      19.54329785      19.56030845       0.00581558       0.00195301      -0.00228108
I       -0.79525601      15.59909265      19.30011863      -0.00472672      -0.02220533      -0.00078059
I       -0.04320328      12.70583182      22.72813715       0.00468995      -0.00187588       0.00096519
Cs       3.07477602      15.67434868      22.72837152       0.00013653      -0.00348744      -0.00091711
Pb       0.02646485      18.71203337      13.00230588       0.00746828       0.01202042       0.01475890
I        3.14382858      19.52978358      13.06704288       0.00228623      -0.00185788      -0.00424566
I       -0.79825049      21.82352410      12.83029060       0.00794625      -0.00787940       0.00366819
I       -0.05134640      18.90718333      16.24014896       0.01231507      -0.00886311       0.00370213
Cs      -3.25976207      15.63832663      16.23444771      -0.00319871      -0.00840648       0.00261378
Pb       0.02849427      18.71610199      19.49900301       0.00076850       0.00811800      -0.00948994
I        3.15388153      17.89528210      19.41874447      -0.00656377       0.00155655       0.00390628
I        0.84828839      21.83318266      19.67131384      -0.00235410       0.00793443       0.00048954
I        0.12305377      18.47961406      22.73516674      -0.00454520      -0.00030236       0.00021237
Cs      -2.98010570      15.60108497      22.72836356       0.00082584       0.00034247       0.00045586
159
Lattice="12.468877150473974 12.455658885840549 0.03660578085816481 -12.50093584829824 12.487541340136369 -0.009235160890552896 0.04511834328209048 0.027282498203389086 25.94770021635299" Properties=species:S:1:pos:R:3:forces_eV_per_A:R:3 energy_eV=-125820.3944465702 fmax_eV_per_A=0.042097416614692254 source=q0_final_ns1.out.gz ionic_step=10 tot_charge=0.0 pbc="T T T"
Pb       0.01829022      -0.00704906       0.00780593       0.00084769       0.00126678       0.00562789
I       -3.10909677       5.41339619      -0.05380687       0.00217490      -0.00169101       0.00277576
I        0.83704609       3.11700720       0.19182814      -0.00280893      -0.00499411       0.00058750
I        0.11495898      -0.23126339       3.26070284      -0.00420350       0.00032679      -0.00930585
Cs       3.27154670       3.05444628       3.25895064       0.00373196      -0.00276908       0.00094642
Pb       0.02478988      -0.00191688       6.49402173       0.00236747      -0.00249268       0.00111997
I       -3.09869819       7.03000289       6.54977937      -0.00072634      -0.00020826      -0.00249834
I       -0.79325099       3.12206062       6.31668479       0.00629638       0.00387954      -0.00275905
I       -0.04789035       0.22197922       9.74070862       0.00516972      -0.00238881      -0.00074331
Cs       3.01633818       3.15548760       9.75102789      -0.00607552      -0.01211118       0.00027459
Pb       0.01180628       6.23298479       0.01486897       0.00073251      -0.00717826       0.00194735
I        3.13681065       7.04459147       0.08553490      -0.00399729      -0.00035661      -0.00651620
I       -0.82496913       9.35253078      -0.12652680      -0.00340774       0.01813836      -0.00110686
I       -0.05769227       6.49276550       3.27082717       0.00790820       0.00769300      -0.00213787
Cs      -3.23309638       3.15140863       3.24815110      -0.00015607      -0.00538852       0.00012316
Pb       0.03198811       6.23640008       6.50358421       0.00289198      -0.01331703      -0.00450123
I        3.14676483       5.40997253       6.44482071      -0.00460022       0.00165039       0.00709933
I        0.84132554       9.38064471       6.78311977       0.01146069      -0.01742540       0.00836508
I        0.11645811       6.00382589       9.74535390      -0.00499025      -0.00448709      -0.00006016
Cs      -2.94052375       3.07683542       9.73720724       0.00664322      -0.00571171       0.00044866
Pb       0.04809361       0.01120078      12.98730526       0.00083587      -0.00355018      -0.00082687
I       -3.08660332       5.43773739      12.89724078       0.00373736       0.00288683      -0.00117268
I        0.85972184       3.13515582      13.16668809      -0.00662291       0.00734410       0.00337252
I        0.13809134      -0.21741939      16.22076840      -0.00492469       0.00021906       0.01037466
Cs       3.29573214       3.06387816      16.24120138       0.00146142      -0.00199800      -0.00054867
Pb       0.05574449       0.01361187      19.47349561      -0.00139148       0.00048260      -0.00609866
I       -3.07628623       7.06817181      19.55202400       0.00765623      -0.00110480      -0.00042577
I       -0.76827764       3.13584658      19.29035337       0.00306733      -0.00653420       0.00030545
I       -0.02805494       0.24119223      22.71454686       0.00460099      -0.00048954      -0.00034633
Cs       3.05376649       3.17928911      22.72109967      -0.00496326      -0.00244306       0.00032833
Pb       0.03183649       6.25417145      12.98620451      -0.00307195      -0.01342913       0.00311309
I        3.15961699       7.04931824      13.07245270       0.00277114       0.00188051      -0.00476528
I       -0.78953263       9.39610860      12.70141421      -0.01107708      -0.01693997      -0.01145401
I       -0.04894836       6.50752915      16.22052520       0.00292412       0.00605469       0.00150101
Cs      -3.20759447       3.16907519      16.22948731      -0.00129378      -0.00540909      -0.00109709
Pb       0.05103626       6.25401158      19.47809321      -0.00102536      -0.00805038      -0.00111329
I        3.16834992       5.42224025      19.40035513      -0.00527462      -0.00152646       0.00378055
I        0.87471819       9.37129086      19.63595660       0.00339900       0.02141755       0.00201883
I        0.14056173       6.04726453      22.72019561      -0.00473443       0.00358875      -0.00110660
Cs      -2.93210160       3.10235427      22.71276353       0.00345299       0.00087032       0.00001954
Pb      -6.23041688       6.23690483      -0.00515589       0.00041549       0.00037795       0.00222452
I       -9.35413997      11.65537033      -0.05877359      -0.00824064       0.00249088       0.00326299
I       -5.41691677       9.35263075       0.18051536      -0.00139457       0.00568574      -0.00193810
I       -6.12952253       6.01621446       3.24870592      -0.00085052       0.00173318      -0.00416622
Cs      -3.04543350       9.27739147       3.26759745      -0.00453491       0.00466758      -0.00125701
Pb      -6.21844453       6.24026832       6.46644719      -0.00063712       0.00290946      -0.00199749
I       -9.34173326      13.29692851       6.57034170       0.00370547      -0.00738292      -0.00691473
I       -7.04199263       9.35605197       6.32534389       0.00217978      -0.00167225       0.00208105
I       -6.34149408       6.43539450       9.73504536      -0.00428320      -0.00588526      -0.00108912
Cs      -3.40872001       9.20903716       9.75824159      -0.00949123      -0.00871244       0.00126421
Pb      -6.23459712      12.47496132       0.00538584      -0.00685019      -0.00026071       0.00696409
I       -3.11227878      13.30246013       0.10177804       0.02057166       0.00454031      -0.00181211
I       -7.06244687      15.59139377      -0.15759959      -0.00121022      -0.00535072      -0.00098473
I       -6.28503536      12.69364059       3.26233680       0.01236675      -0.00813703      -0.00500208
Cs      -9.47977404       9.40095900       3.24258697      -0.00488638      -0.00160745       0.00127038
Pb      -6.22760296      12.47052662       6.49696712      -0.01160005      -0.00650926      -0.01111642
I       -3.07421375      11.61984456       6.53891446      -0.01841707      -0.01253644       0.00886542
I       -5.44537757      15.59280831       6.62884154      -0.00065640       0.00371344      -0.01069219
I       -6.13476921      12.25611248       9.73976381      -0.01299898      -0.00260144       0.00031753
Cs      -9.21839732       9.35475721       9.73436357      -0.00870293       0.01070068       0.00069471
Pb      -6.20415852       6.25216029      13.00543645      -0.00327096       0.00007713       0.00216590
I       -9.32251873      11.67501002      12.91614846       0.00355815       0.00768323       0.00873507
I       -5.40424435       9.36941075      13.17600605       0.00084975       0.00102330       0.00352987
I       -6.10744477       6.03475239      16.22312840      -0.00138377       0.00412739       0.00511572
Cs      -3.00595133       9.25779104      16.24619294      -0.00046486      -0.00072454       0.00417239
Pb      -6.19707362       6.25672106      19.47796989      -0.00040186      -0.00026225      -0.00244203
I       -9.31912328      13.31491771      19.53869457      -0.00338229      -0.00219906      -0.00351418
I       -7.01688494       9.37232683      19.28086390       0.00026945       0.00442615       0.00019720
I       -6.28302827       6.48391842      22.70981131       0.00212296      -0.00168202      -0.00026431
Cs      -3.20995384       9.39505820      22.72553122       0.00030442      -0.00250271       0.00065897
Pb      -6.20170086      12.49303261      12.97791148      -0.01135811       0.00533735       0.00810258
I       -7.02609948      15.60439484      12.79588222       0.00216230      -0.00407417      -0.00166273
I       -6.24823229      12.72455657      16.21705496       0.01322627       0.00173909       0.00171081
Cs      -9.46362013       9.40777138      16.22516153      -0.00451409      -0.00101919      -0.00093382
Pb      -6.19498204      12.48932295      19.47625396      -0.00880654       0.00110069      -0.00426392
I       -3.07933112      11.65500659      19.39378006       0.01875646      -0.00571453       0.00416622
I       -5.38616260      15.61109549      19.65093289      -0.00048157      -0.00402301      -0.00085155
I       -6.09389015      12.26905475      22.71502009      -0.00308610       0.00155475      -0.00189619
Cs      -9.18560014       9.34935264      22.70742156      -0.00029079       0.00471592       0.00015015
Pb       6.25584347       6.22142062       0.01808951       0.00013807      -0.00032396       0.00161851
I        3.12171234      11.62959887      -0.02194731      -0.02230664      -0.00500337       0.00120688
I        7.07054499       9.33805739       0.21469640       0.00041755       0.00589863       0.00018281
I        6.34217379       6.01028891       3.27176176      -0.00670312       0.00554278      -0.00439787
Cs       9.50756563       9.27783082       3.27832084       0.00576493       0.00288735      -0.00026585
Pb       6.26381300       6.22866842       6.49139865       0.00149407      -0.00026020      -0.00187973
I        3.09468826      13.29628428       6.73818709       0.01495894       0.01256318       0.01100869
I        5.44989287       9.34284726       6.33475636      -0.00223892      -0.00170181       0.00043169
I        6.26101808       6.38052828       9.75988802       0.01541171      -0.01027002      -0.00029902
Cs       9.27608428       9.41265094       9.76444790       0.00971286       0.00350981       0.00011339
Pb       6.24016617      12.45258522       0.03461786       0.00862914       0.00079396       0.00185865
I        9.36281691      13.27510542       0.11469240       0.00655554      -0.00256030      -0.00318740
I        5.42362071      15.57610106      -0.13288436       0.00099116      -0.00726722      -0.00008767
I        6.12805672      12.68859742       3.29379531      -0.00289198      -0.00051139       0.00021314
Cs       3.04070139       9.32777694       3.26347243      -0.00036895      -0.00680571      -0.00392865
Pb       6.24351167      12.46688322       6.53018594       0.01061583       0.00480385      -0.00384868
I        9.36580359      11.63930901       6.44570005      -0.00678668       0.00710422      -0.00072634
I        7.05766857      15.58070981       6.72938028      -0.00346302      -0.00380549       0.00260041
I        6.35950652      12.23854960       9.76995329       0.00262998       0.00056359      -0.00159100
Cs       3.42459311       9.16931457       9.75197006       0.00931228      -0.00553121      -0.00002314
Pb       6.27580271       6.23449177      13.02665945       0.00089706       0.00054507       0.00215844
I        3.12199815      11.64060763      12.84165369       0.01775527      -0.01252282      -0.00361960
I        7.09660335       9.34929349      13.17173573      -0.00140537       0.00197152      -0.00252122
I        6.35990238       6.01700093      16.24643627      -0.00938401       0.00167353       0.00563663
Cs       9.52663277       9.29387860      16.26096098       0.00727005       0.00041215      -0.00181571
Pb       6.28861842       6.23941635      19.49897442       0.00016609       0.00038567      -0.00208799
I        3.15492142      13.31156664      19.54518990      -0.01734878       0.00437165      -0.00268063
I        5.46875451       9.35526012      19.31788188       0.00088369       0.00321336       0.00359877
I        6.21161981       6.46515036      22.73289638       0.00689004      -0.00241118      -0.00059187
Cs       9.28943938       9.40865146      22.74184843      -0.00136397       0.00122950       0.00028436
Pb       6.27432959      12.46127160      13.01276562       0.01243051      -0.00479691       0.00826121
I        9.38753357      13.28958523      13.08696089      -0.00199132      -0.00629895      -0.00033990
I        5.48345301      15.58701926      12.88539183       0.00146244       0.00103101       0.00554458
I        6.15672770      12.68949483      16.24595690      -0.00523477      -0.00703325       0.00535638
Cs       3.08195147       9.37096874      16.24349677       0.00530907       0.00038155       0.00133852
Pb       6.27886486      12.47691093      19.50110810       0.00607269      -0.00016635      -0.00464727
I        9.39689249      11.64939007      19.42196258       0.00531370       0.00251762       0.00319691
I        7.09633800      15.59477083      19.67797557       0.00094282      -0.00260967       0.00034067
I        6.35372918      12.25191301      22.74206992      -0.00582175       0.00189979       0.00112537
Cs       3.31033457       9.31587428      22.72814827      -0.00044917       0.00164679      -0.00011647
Pb       0.00050591      12.47112072      -0.03506529      -0.00227028       0.00118399      -0.02550149
I       -3.12605834      17.88348951      -0.03898920       0.00364351       0.00043297       0.00298762
I        0.83149922      15.58048587       0.20593765       0.00491235      -0.01846669       0.00018126
I        0.12204334      12.26647609       3.26660646      -0.00320308       0.00025608       0.04016655
Cs       3.29287600      15.55353092       3.26895486       0.00143288      -0.00077519      -0.00372604
Pb       0.01691838      12.44692681       6.31704253       0.00069060       0.00436419      -0.01028261
I       -3.11397963      19.52079567       6.60352367       0.00142722      -0.00131846      -0.00298197
I       -0.84433089      15.54483743       6.48509752      -0.01216903       0.01218729       0.00982984
I       -3.04820582      13.32948615      12.90589087      -0.01096961       0.01234001      -0.01544488
Cs       3.26993011      15.88561450       9.74867248       0.01574389       0.01849498      -0.00072634
Pb      -0.00029299      18.69444003       0.02522590      -0.00141976       0.00886696       0.00675557
I        3.11974455      19.51853301       0.11174879      -0.00393430       0.00065229      -0.00328227
I       -0.82882869      21.81361044      -0.13546732       0.00276754       0.00373427      -0.00004319
I       -0.09621801      18.88401708       3.28382766      -0.00258113      -0.01108943      -0.00277731
Cs      -3.23825657      15.67214302       3.27426227       0.00680263       0.00379109      -0.00168510
Pb       0.00221414      18.69921356       6.52437431      -0.00629895       0.01201245      -0.01278353
I        3.12626655      17.90359555       6.40343336      -0.00083638       0.00121613      -0.00868339
I        0.81814372      21.81248849       6.70247635      -0.00857129      -0.00305576      -0.00529699
I        0.09767554      18.47092503       9.76175538      -0.00266135       0.00899938      -0.00088112
Cs      -3.21653994      15.80970045       9.75392520      -0.02418354       0.03058070       0.00150847
Pb       0.04349471      12.46222097      13.19142585      -0.00365354       0.00272126       0.01328283
I       -3.09793885      17.92705463      12.98509563      -0.00321105      -0.00010516       0.01578837
I        0.88532023      15.55918974      13.04123137       0.01333888       0.01548113      -0.00831701
I        0.09400824      12.25701727      16.24258372      -0.00421867      -0.00034941      -0.04188405
Cs       3.28157761      15.59718664      16.23989389      -0.00373864       0.00688541       0.00114645
Pb       0.03626908      12.49146221      19.54432642       0.00092920       0.00294828       0.02390201
I       -3.09116877      19.54329785      19.56030845       0.00568342       0.00172572      -0.00261558
I       -0.79525601      15.59909265      19.30011863      -0.00430814      -0.02056677      -0.00123439
I       -0.04320328      12.70583182      22.72813715       0.00481516      -0.00220138       0.00055973
Cs       3.07477602      15.67434868      22.72837152      -0.00016609      -0.00332007      -0.00055819
Pb       0.02646485      18.71203337      13.00230588       0.00680365       0.01226648       0.01398886
I        3.14382858      19.52978358      13.06704288       0.00247674      -0.00175041      -0.00433102
I       -0.79825049      21.82352410      12.83029060       0.00853915      -0.00459148       0.00371807
I       -0.05134640      18.90718333      16.24014896       0.01226108      -0.00867465       0.00521625
Cs      -3.25976207      15.63832663      16.23444771      -0.00334629      -0.00801541       0.00209776
Pb       0.02849427      18.71610199      19.49900301       0.00076362       0.00797428      -0.00847873
I        3.15388153      17.89528210      19.41874447      -0.00622078       0.00146399       0.00379829
I        0.84828839      21.83318266      19.67131384      -0.00302053       0.00721529      -0.00004319
I        0.12305377      18.47961406      22.73516674      -0.00442898      -0.00037718       0.00015864
Cs      -2.98010570      15.60108497      22.72836356       0.00103153       0.00034401       0.00065743
159
Lattice="12.468877150473974 12.455658885840549 0.03660578085816481 -12.50093584829824 12.487541340136369 -0.009235160890552896 0.04511834328209048 0.027282498203389086 25.94770021635299" Properties=species:S:1:pos:R:3:forces_eV_per_A:R:3 energy_eV=-125820.36737205721 fmax_eV_per_A=0.04979266078360288 source=q0_initial.out.gz ionic_step=0 tot_charge=0.0 pbc="T T T"
Pb       0.01876521      -0.00690297       0.00852295       0.00807481      -0.00243561       0.00003420
I       -3.10829829       5.41564538      -0.05452191       0.00004654      -0.00109040       0.00064329
I        0.83609679       3.11326919       0.17594972       0.00113951      -0.00771460       0.00809229
I        0.12323366      -0.23342889       3.26287227      -0.00658768       0.00723946      -0.01761746
Cs       3.25869194       3.06081622       3.25578305       0.00356638      -0.00273257       0.00748371
Pb       0.02743378       0.00205990       6.48411129       0.01213998      -0.00635011      -0.00021597
I       -3.09734736       7.01885552       6.53409927       0.00019335      -0.00233199      -0.01028544
I       -0.79060847       3.11673534       6.33708844      -0.00211782      -0.00456988      -0.01693277
I       -0.03067454       0.22867199       9.74648273      -0.00157274      -0.00069600       0.03614457
Cs       3.03223271       3.20785763       9.72568391      -0.00435725       0.00267678       0.00132309
Pb       0.01453800       6.22745025       0.01842521       0.00053710       0.00661725      -0.00226977
I        3.13589670       7.04695421       0.08871146      -0.00190802       0.00019052      -0.00020029
I       -0.81004927       9.34728352      -0.14152366      -0.00004705      -0.00245849      -0.00594876
I       -0.06376713       6.46482656       3.26727895       0.01063280      -0.00705177      -0.02380996
Cs      -3.22777369       3.16141730       3.24465477      -0.00018615      -0.00315577       0.00372167
Pb       0.02854437       6.23031331       6.48429160       0.01031424       0.00855483       0.00815914
I        3.14800610       5.41068539       6.43928863      -0.01138022       0.00098602      -0.00317094
I        0.82707429       9.35512995       6.69954233       0.00038129      -0.00397261       0.00513141
I        0.11317983       6.02758241       9.74645659      -0.01173554       0.01131543       0.01760589
Cs      -2.94048705       3.11940005       9.69578557       0.00207745       0.00366896       0.00119351
Pb      -0.02298516       0.03570379      12.98633604      -0.01597581       0.00360006      -0.00261044
I       -3.08502888       5.41835953      12.91711101       0.00058724       0.00658177       0.00152132
I        0.85519564       3.13401678      13.15834290       0.00322468      -0.01024688       0.00547851
I        0.16110851      -0.22527484      16.22299861      -0.00924517       0.00381140      -0.03414631
Cs       3.29146888       3.09192751      16.25881533       0.00750197       0.00688259      -0.00441021
Pb       0.05146784       0.01729868      19.47778213       0.01588505      -0.00287835       0.00212116
I       -3.07323507       7.03869757      19.58276794       0.00215176      -0.00578370       0.01217057
I       -0.76235741       3.13139967      19.29384481      -0.00480385      -0.01047776      -0.00203529
I       -0.02741194       0.24405634      22.70540847       0.00779687      -0.00524274       0.01618098
Cs       3.05519359       3.17962952      22.72935431       0.00307273      -0.00988049      -0.00799305
Pb       0.03017289       6.25203436      12.99094657       0.01828106       0.01449999      -0.00126987
I        3.16419489       7.07534765      13.06577767       0.00466835      -0.01082743      -0.00287347
I       -0.84556897       9.39801033      12.83883269      -0.00134392      -0.02328468      -0.00218004
I       -0.03265570       6.46376961      16.23587267       0.00418421      -0.00935059      -0.01569350
Cs      -3.21675870       3.19935850      16.26660053       0.00012341       0.00128272       0.00099836
Pb       0.04944403       6.23724529      19.49685466       0.01702148       0.00936807      -0.00507973
I        3.17145930       5.42571193      19.40345658      -0.01282801      -0.00242018       0.00592048
I        0.86147880       9.36727750      19.64214579       0.00045020      -0.00695998       0.01419146
I        0.14459603       6.02391630      22.71515148      -0.00372861       0.00515815       0.02267328
Cs      -2.93475229       3.10830908      22.71860272       0.00001877       0.00035456      -0.00449352
Pb      -6.22983525       6.23552550       0.00458145      -0.00102536       0.00642493       0.00126473
I       -9.35570533      11.65626514      -0.05849354      -0.01076367      -0.00140202       0.00037152
I       -5.41291467       9.35538392       0.17101796      -0.00013601       0.00002211       0.00649692
I       -6.13564137       6.01458724       3.25536516      -0.01038212       0.00524222      -0.02187263
Cs      -2.98927237       9.29767838       3.24796229       0.00071631       0.00640822      -0.00315243
Pb      -6.22065229       6.23315168       6.47362486      -0.01216440       0.00680931       0.00449069
I       -9.34269737      13.29497390       6.59721987      -0.00438347       0.00069548       0.00196972
I       -7.04366273       9.36029217       6.34203955      -0.00225331      -0.00389805      -0.01153371
I       -6.30234826       6.47763087       9.73593275       0.01065440      -0.00966041       0.01567113
Cs      -3.20970514       9.29512392       9.66232009       0.00774751       0.00177946       0.00136243
Pb      -6.23787767      12.47161127       0.01113398       0.00606703       0.00259244      -0.00555127
I       -3.11559374      13.29228829       0.08376251      -0.00003600      -0.00066232      -0.00020363
I       -7.06122047      15.59015693      -0.14817286      -0.00204891      -0.00141848      -0.00618119
I       -6.31688804      12.70746639       3.26233542       0.00276548      -0.01241766       0.00102716
Cs      -9.47812597       9.39171134       3.24085693       0.00146296       0.00112871       0.00334938
Pb      -6.22644016      12.47212905       6.47529464       0.00533041       0.00449480       0.01051196
I       -3.10920695      11.64026425       6.42703961      -0.00067980      -0.00785009      -0.01275344
I       -5.44782779      15.59815850       6.63063613       0.00244872      -0.00424592      -0.00525456
I       -5.97543995      12.30090238       9.78114218      -0.00652417       0.00735284       0.00794085
Cs      -9.20886417       9.28915610       9.68059095      -0.00683554      -0.00839054      -0.00289789
Pb      -6.19833023       6.26120252      12.97899561      -0.01724928       0.01600975       0.00351316
I       -9.36073810      11.61791602      12.92206103       0.01189470      -0.03228252       0.00199209
I       -5.33432638       9.41187376      13.14910584      -0.00093742      -0.02127819       0.00384020
I       -6.10635364       6.04261726      16.22463860      -0.00356895       0.01146995      -0.01821832
Cs      -2.98625503       9.18487459      16.32584159      -0.00859006       0.01164787      -0.00117834
Pb      -6.19858681       6.25045854      19.48694751      -0.01472857       0.01154271      -0.00872787
I       -9.31447731      13.31391194      19.50866111      -0.00577290       0.00022960      -0.00292669
I       -7.00608066       9.37767842      19.28102753       0.00037898      -0.00499283      -0.00720243
I       -6.28696063       6.49108256      22.70285095       0.00321234      -0.00757447       0.02397631
Cs      -3.18976262       9.41886638      22.72833650      -0.00063866       0.00191521       0.00299019
Pb      -6.44818493      12.41918614      12.97204996       0.03602322       0.02168057       0.00070860
I       -7.01223531      15.58750306      12.80421203      -0.01160750       0.00257907      -0.00600661
I       -6.10888149      12.77924935      16.18520992       0.01148898      -0.00011416      -0.01390118
Cs      -9.49290125       9.33894099      16.28501907      -0.00842268      -0.01996256       0.00237673
Pb      -6.19425076      12.48938474      19.48968562       0.00447501       0.00500928      -0.01754470
I       -3.07955370      11.65880922      19.40430586       0.00036741      -0.01037543       0.01432670
I       -5.39386937      15.61288340      19.66365723      -0.00184914      -0.00102073       0.02204130
I       -6.10570350      12.26642236      22.70529405      -0.01030910       0.00468429       0.00854275
Cs      -9.18927686       9.34098546      22.71492847       0.00173884       0.00677357      -0.00286755
Pb       6.25469230       6.22271079       0.02954403      -0.00051473      -0.00701988      -0.00457991
I        3.12310363      11.64053791      -0.03536533       0.01039189      -0.00132026       0.00036870
I        7.07275197       9.33620915       0.19497260       0.00204634       0.01182913       0.00708005
I        6.35443804       5.99639605       3.27816104      -0.00757627       0.01266397      -0.03032694
Cs       9.49580358       9.27845032       3.27580337       0.00066257       0.00676020       0.00518283
Pb       6.26048234       6.23594214       6.48899993       0.00794420      -0.00164859       0.01427682
I        3.12652771      13.27956168       6.62775448       0.00554587       0.00157172       0.00367976
I        5.44164322       9.34319572       6.35217499      -0.00154703       0.01472060      -0.02056960
I        6.20643890       6.44258087       9.75971166       0.01662681      -0.01368367       0.01164247
Cs       9.26873204       9.39962881       9.73673795      -0.00175966      -0.00060884       0.00012033
Pb       6.25038904      12.45623485       0.03723862      -0.00858106      -0.00168047       0.00133775
I        9.36955541      13.27524088       0.10719494      -0.00012187       0.00199055      -0.00005991
I        5.42593054      15.57661945      -0.12421701      -0.00092534      -0.01011806      -0.00767654
I        6.16077951      12.68892911       3.28839839       0.00587240      -0.00587189      -0.01691143
Cs       3.00735907       9.37701981       3.26345860      -0.00180980       0.00240192       0.00339231
Pb       6.25882331      12.46721368       6.51611110      -0.01050090      -0.00047000      -0.00259759
I        9.37730070      11.63485514       6.46493633      -0.00142568      -0.00071554      -0.00630640
I        7.06619011      15.58212632       6.70781676       0.00405540      -0.00922563       0.00360854
I        6.32859877      12.22919982       9.77016553       0.00167585       0.00541089       0.03594608
Cs       3.31247318       9.24749082       9.69580494       0.00449815      -0.01380862      -0.00517563
Pb       6.29556461       6.23968739      13.00492114      -0.02420000      -0.00193656       0.00116162
I        3.17254287      11.61020082      12.90569625      -0.00266289      -0.03373236      -0.00032679
I        7.10417404       9.35568019      13.17792247       0.01209524       0.01169775       0.00152569
I        6.37354174       6.01572078      16.24644264      -0.01106294       0.01206953      -0.01559734
Cs       9.51981957       9.29131001      16.28572630       0.00028102       0.00526433      -0.00102587
Pb       6.28266038       6.24902669      19.51084520       0.00381140      -0.00367411      -0.00962081
I        3.15617597      13.29934013      19.53966255       0.00804087       0.00062349      -0.00180466
I        5.47214010       9.35439836      19.31456255      -0.00306681       0.01947945      -0.00072402
I        6.20376285       6.46797796      22.72526354       0.00655143      -0.00249294       0.03011071
Cs       9.29383771       9.39954613      22.74705364      -0.00150590       0.00012033      -0.00428500
Pb       6.33774206      12.49811736      13.01316897       0.01761283       0.00351753       0.00226411
I        9.39257705      13.33536102      13.08954083      -0.00325167       0.01673017      -0.00286884
I        5.45363105      15.59974955      12.84314492      -0.00202526      -0.01216003      -0.00494243
I        6.16477203      12.69475621      16.24704611       0.00853144      -0.00211550      -0.03566095
Cs       3.00894318       9.36345384      16.30035062       0.00033219      -0.00804395       0.00078624
Pb       6.28777634      12.47761396      19.50925430      -0.01704384      -0.00763721       0.00065023
I        9.40377272      11.65308557      19.41444034      -0.00012624      -0.00180209       0.00585929
I        7.09620131      15.59578572      19.66225982       0.00309767      -0.00754876       0.01582566
I        6.37257449      12.24621134      22.73089661      -0.00667278       0.00755287       0.01670703
Cs       3.29923901       9.32365465      22.73740142      -0.00083612       0.00480051      -0.00293620
Pb       0.00609736      12.46405802       0.02651191      -0.00584772       0.00282924       0.00476708
I       -3.12409723      17.88762558      -0.04057413      -0.00054507       0.00278322       0.00064766
I        0.82239191      15.58290986       0.19127192       0.00202783       0.00052091       0.00713173
I        0.10214629      12.24120887       3.28592444      -0.00357255       0.00336352      -0.01130026
Cs       3.25106428      15.53162729       3.26911681      -0.00292772      -0.00321825       0.00758655
Pb       0.00815186      12.46548699       6.49686681      -0.00748474       0.00503653       0.02292062
I       -3.11141854      19.51096169       6.60280480      -0.00044094      -0.00378184      -0.00043452
I       -0.79227220      15.58978076       6.31451474       0.00424515      -0.00341880      -0.02446173
I       -0.25243250      12.74645038       9.80495327      -0.00169924      -0.00258319       0.00764286
Cs       3.02798083      15.67589416       9.74190418      -0.00180800       0.00066437       0.00622284
Pb      -0.00159960      18.70183557       0.02960378       0.00043760      -0.00705459       0.00083844
I        3.11818597      19.51848396       0.10276414       0.00220832       0.00007790      -0.00097779
I       -0.82667163      21.81513189      -0.13008203      -0.00210162       0.01020420      -0.00684351
I       -0.08789507      18.93041626       3.28070689       0.00689493      -0.00120482      -0.02911235
Cs      -3.24008047      15.63688767       3.25066779       0.00025917      -0.00606575      -0.00306553
Pb       0.01639561      18.71615006       6.49365516      -0.00492135      -0.00264721       0.01015612
I        3.12579694      17.87912595       6.45325730       0.01089222      -0.00140151      -0.00366357
I        0.81655373      21.82140851       6.69933087       0.00119273       0.01573798      -0.00144265
I        0.09286276      18.47862391       9.75983886      -0.00192216       0.01359702       0.01487615
Cs      -2.96528700      15.74312125       9.55630462      -0.01302290       0.02111750      -0.00674992
Pb       0.26097590      12.40644780      12.98800955      -0.04408954       0.02307797       0.00168202
I       -3.10154238      17.74662633      12.94503332      -0.00094385      -0.00952105       0.00201806
I        0.80673055      15.57710257      13.19099738       0.01076778       0.00180414       0.00429426
I       -0.01666467      12.27849292      16.20904509      -0.00293414      -0.00024220      -0.01205256
Cs       3.27560123      15.57566691      16.27176574       0.00440481       0.01011575      -0.00121176
Pb       0.03846350      12.47861212      19.51052780      -0.00311026       0.00379161      -0.00528902
I       -3.09070191      19.53431378      19.55188984       0.00139508      -0.00143339       0.00085078
I       -0.75728165      15.60194775      19.34716202      -0.00201523      -0.00266958       0.00395564
I       -0.05344496      12.71886621      22.72804504       0.01074156      -0.01096987      -0.00275185
Cs       3.04948724      15.65396946      22.74317182      -0.00358720      -0.00940767      -0.00742869
Pb       0.00081562      18.71747132      13.00433819       0.02365981      -0.00253228       0.00059444
I        3.13622227      19.54322139      13.07628159      -0.00528773      -0.01387367      -0.00246003
I       -0.80970690      21.83342915      12.83235616      -0.01277916       0.01051941      -0.00281613
I       -0.08596470      18.92976415      16.24693916       0.00386000      -0.00882068      -0.01302881
Cs      -3.22118923      15.76602848      16.39842510       0.01274676       0.00870473       0.00691293
Pb       0.03392582      18.72649199      19.51628768      -0.00700806      -0.00309972      -0.01279767
I        3.14815091      17.90172103      19.41533328       0.01184070       0.00211499       0.00368902
I        0.84548981      21.83566488      19.66159283       0.00049777       0.01739763       0.02107559
I        0.12431382      18.48911708      22.72711822      -0.00490207       0.01121104       0.03146619
Cs      -2.95507651      15.58731689      22.73664218       0.00030210      -0.00243355       0.00268732
