96
Lattice="13.036720129786218 0.15850704405134308 0.0 0.1586462862701448 13.020468739875268 0.0 0.0 0.0 13.017959588757243" Properties=species:S:1:pos:R:3:momenta:R:3:forces:R:3:energies:R:1 md_step=18000 md_ps=18.0 epot_eV=-437.6205159057533 T_inst=362.8543413408363 src_md_ps=18.0 config_id=4 energy=-442.7005616224268 stress="0.00033277424376960334 0.0006271246724767312 0.00027321934130977493 0.0006271246724767312 -0.0006626100635924655 -0.0006018031888598879 0.00027321934130977493 -0.0006018031888598879 -0.0006389179353624391" free_energy=-442.7005616224268 pbc="T T T"
Pb       0.08026644      12.90384784       0.01794439       0.12653149       1.94983661       3.37399994      -0.01818376       0.00091543      -0.01666243      -4.66252835
I        3.35480953      13.27948747       0.17268101      -4.94943801      -1.06346925      -1.13703134      -0.01487130       0.00708898      -0.02703030      -1.91910217
I       -0.57960490       3.18880594       0.09662188       0.42808351      -0.13886567      -4.12050655      -0.01473477       0.00498205       0.01381015      -2.08718872
I       12.87738365      -0.32539588       3.25244408       3.92908659      -1.44544584       0.07118053       0.00973010      -0.01123473      -0.01772216      -1.98450440
C        3.01236600       3.26921522       2.67406128      -1.52703472      -0.17119071      -0.16921809       0.00593674      -0.01020579       0.02153034      -8.89371310
H        3.16163913       2.99638596       1.62673243       0.07132523      -0.00955322      -0.16370596       0.01120536      -0.02502621       0.01357116      -3.47287182
N        1.86231637       3.80597170       3.02044086       0.77292829       0.36812276       0.13649598       0.00482814      -0.02533193      -0.00557612      -8.67857250
H        1.12875187       3.95774544       2.33205899      -0.10750022       0.19967987       0.10611146       0.00594342      -0.03324922       0.00583462      -3.81947007
H        1.68713904       4.12873370       3.97110154       0.03220470      -0.28525692       0.17904619      -0.00342033      -0.01466922       0.01077267      -3.70085019
N        3.98969638       3.04393646       3.52639264      -0.72502849      -1.12189263      -0.63737423       0.01316338       0.00269512       0.00519280      -8.74268909
H        3.91909922       3.35045312       4.49504969       0.04626315      -0.36282196      -0.24609267       0.01931231       0.03337474       0.00995654      -3.63218213
H        4.81288701       2.51018393       3.25554675      -0.00965275       0.16114309       0.06919787       0.01765151       0.01917341       0.01553848      -3.80039046
Pb       0.09274322      12.93192359       6.48146280       1.14266342       0.15994165       0.82507518      -0.00095044      -0.00250735      -0.01475599      -4.65310043
I        3.39335966      13.25374803       6.28449233      -0.15267480      -2.86880909      -4.29195474      -0.00143917       0.00208526       0.00270497      -2.03197349
I       -0.15335033       3.19108423       6.31348805       0.59862983       1.67387683       0.30912105      -0.00600664      -0.00199664      -0.00903347      -2.01939324
I       12.87219372       0.10772686       9.76721642       0.80158277       0.53531934      -3.77092119       0.01340236       0.01813777      -0.01512328      -1.96128589
C        3.79419215       3.16782062       9.61313036       0.53725949      -0.09329953      -1.00612342      -0.01750091      -0.00099714      -0.00377992      -8.88460652
H        4.75054324       2.63645762       9.60522083       0.24962165       0.08287622       0.16414184      -0.02197513      -0.01284227       0.00000444      -3.48357310
N        3.63942558       4.16697140      10.45266097      -0.82099205       0.21868044      -0.75696663      -0.00205988      -0.00085324       0.00603093      -8.63029173
H        4.38468061       4.43292077      11.09046830       0.15245600      -0.08053711       0.01749334      -0.00347416      -0.01801933       0.00724016      -3.80787212
H        2.81601182       4.77358394      10.41802144       0.04452027       0.13562679      -0.04437647       0.00057155       0.00559533       0.01009538      -3.74965336
N        2.84701548       2.75532287       8.79892848      -0.26609763      -0.76370197       0.37709432      -0.01181903       0.01751496      -0.00703579      -8.61659078
H        1.97158038       3.26753592       8.70691570       0.05551170       0.04952815       0.07724074      -0.00880082       0.03024482      -0.01408865      -3.63751024
H        3.01367211       1.99755085       8.12966592       0.06554583      -0.29910865       0.07504302      -0.01986333       0.01787013      -0.01047474      -3.89508082
Pb       0.01656344       6.52996848      -0.11098446       3.21422709       0.81746843      -0.19954833      -0.01531013       0.00432330       0.00159443      -4.63885272
I        3.23268012       6.37304154       0.16905798      -1.09936872       1.06506541       0.10337276      -0.01181686      -0.00892612       0.00686372      -1.91066499
I        0.36494352       9.69185629      -0.48650845       0.86651629       5.61075889      -0.44926271      -0.02730670       0.00039332      -0.03857566      -1.98884685
I       12.87685095       6.84462783       3.17680280       0.54086773       0.70753357      -0.00533206       0.00276495      -0.00762259      -0.00283329      -2.00459176
C        3.06344670       9.59985954       3.55185750      -0.62455684      -0.63030997       0.78763787      -0.00315950      -0.00053071      -0.00260249      -8.87419156
H        2.08129932      10.03843254       3.35358013      -0.00168174       0.11393254      -0.08788500      -0.00406608       0.00319989      -0.01281890      -3.45843008
N        3.97114097      10.35199345       4.14397303      -0.45780515      -0.06294726       0.68766363      -0.00941697       0.00065004      -0.00413022      -8.58629097
H        3.72388278      11.27643427       4.50139086       0.11971798       0.06433472       0.07426116      -0.00158239       0.00442303      -0.01292151      -3.84531241
H        4.81046835       9.93645941       4.55982735       0.15829853       0.00827185       0.15363795      -0.00734791      -0.00070090       0.00103685      -3.72813599
N        3.29492885       8.36320496       3.16738707      -0.44987386      -0.65359806       1.09155182      -0.01030461      -0.00271838       0.00728692      -8.65977254
H        4.21475204       7.92645465       3.27239944      -0.14367031      -0.12931377       0.30176776      -0.00220145       0.00142563       0.00017109      -3.75312516
H        2.55920874       7.79724689       2.75125592       0.13132427       0.02324624      -0.01308680      -0.00314763      -0.00364496       0.00355345      -3.81228147
Pb       0.15752410       6.47339207       6.44626177       1.33040055      -3.50301285       4.87003688      -0.00640281      -0.00566981      -0.00358372      -4.66168508
I        3.35609929       5.95096131       6.18280017      -1.48560399       1.67044267      -0.16743509      -0.00019677       0.00365459      -0.00067905      -1.93910449
I        0.48632682       9.68347920       6.47698669       0.23855172       0.96901866       0.22295562      -0.00782453      -0.00770592       0.00289313      -1.97146483
I       13.57726665       6.37165407       9.69450758      -1.84462826       0.80549301      -0.40094460      -0.00137568      -0.01981862      -0.00248549      -2.03143911
C        3.82546801      10.10297670       9.72406072       0.24408740      -0.52083495       1.43865068       0.00760174      -0.02160015       0.00787629      -8.93706447
H        4.90173574      10.12989671       9.53407357       0.29967153      -0.05840806      -0.05527712       0.00744154      -0.01927491       0.00780269      -3.46250004
N        3.22276087       8.93147590       9.71404843      -0.00298787       0.05848899       0.61112389       0.00349360      -0.00740942       0.01603462      -8.75572374
H        3.76873221       8.08299111       9.58996762      -0.21925749      -0.01309239      -0.06914746       0.00022404      -0.01890883       0.00871076      -3.76346694
H        2.24824621       8.82867817       9.99362804      -0.25671309       0.16339120      -0.08306315      -0.00225402      -0.00762185      -0.00445578      -3.65257680
N        3.20436883      11.24405439       9.92180864       0.43892221      -0.15980394      -0.30142688       0.00763631      -0.01078888       0.00424933      -8.71676112
H        2.19129115      11.31351927      10.04707116       0.02980124      -0.38000973      -0.12456488       0.01011941      -0.00748491      -0.01293443      -3.72256490
H        3.73845084      12.10687629       9.98256999      -0.05251764      -0.12452110      -0.32525281       0.01200756      -0.01243338      -0.01294061      -3.76197365
Pb       6.54687008      13.07295845       0.02093832      -2.59467804      -3.85368125      -1.34591781      -0.00637239      -0.00188496       0.00084215      -4.66123761
I        9.90359504      12.67788296      -0.08355608      -4.88661261       0.62746900      -1.61493378      -0.02194894       0.02370106      -0.01742474      -1.94641754
I        6.49546998       3.33869279       0.08336839       2.41424807       0.56111695      -1.99730838       0.00208851       0.00190675      -0.00284397      -1.95782712
I        6.54058856       0.20978738       3.30444949       2.41372160       0.41839576       1.59554642       0.00810404       0.00855209      -0.00247817      -2.05325385
C        9.10810841       3.32057988       3.22985502      -0.23070463      -0.20219842       0.29678224       0.01734860       0.01507125       0.01152584      -8.90557169
H        8.09485739       3.24166573       3.63348151       0.45380817       0.03044932      -0.03943430       0.02251228       0.00551470       0.02281926      -3.47203648
N        9.56111951       2.34760530       2.46864622       0.34681392      -0.77282017       0.08058653       0.01735818       0.01130674       0.00758582      -8.66430994
H       10.40719990       2.46170403       1.90656092       0.11608637      -0.28100955      -0.04042067       0.01314418       0.01324403       0.00604028      -3.71968639
H        8.97812677       1.54004462       2.26052282       0.33230969       0.24625021      -0.28713827       0.01697296       0.00936041       0.01433053      -3.79806563
N        9.82531639       4.37981857       3.54289080      -0.29382907      -0.25542627       0.53151225       0.01136251       0.01560706      -0.00691921      -8.75905545
H       10.78637412       4.48475876       3.22691026      -0.38631887      -0.03965458      -0.20167921       0.00508686       0.02838493      -0.01833517      -3.62879704
H        9.45367650       5.11733602       4.13592798       0.29638940       0.02539879       0.01054408       0.01456647       0.01683612       0.00522657      -3.78445837
Pb       6.73148947      13.08723668       6.59453262      -0.07931190      -0.61273628       2.33710172       0.00141944       0.00887245      -0.00629126      -4.66006511
I        9.91491136      12.85484769       6.61574534      -0.92831542      -1.79172771       0.15276707       0.00531228       0.00560263      -0.00845230      -1.93390973
I        6.83168208       3.28785009       6.66339755       0.38417526      -1.14359558       1.49499837       0.00330569       0.00761379       0.01006936      -1.96790617
I        6.33422277       0.06727771       9.81411451       0.79024082       0.13794694       0.43536558      -0.00032684       0.00069142      -0.00713386      -2.01503096
C        9.72413192       3.89124407       9.48369271       1.00072082       1.34572424      -1.32817570       0.00934166      -0.01323254      -0.00255843      -8.88792796
H        9.30211500       4.10129914       8.49639766      -0.00325976       0.06159530       0.35181178       0.01023316      -0.01262354      -0.00299206      -3.48047154
N       11.01404699       3.65361303       9.58153323       0.75074634      -0.44339030      -0.38383477       0.00085024      -0.01814396       0.00577995      -8.66473750
H       11.60791166       3.66751943       8.75161977      -0.02360436       0.17177408      -0.15286083       0.00969771      -0.01915895       0.00478286      -3.82718561
H       11.46722852       3.52144457      10.48928064      -0.03405321      -0.19350964       0.00616492       0.00150638      -0.01366582       0.00561374      -3.72002579
N        8.90680826       3.86978177      10.51576049       0.32102012      -0.53852375       1.28646909       0.00452642      -0.00803208      -0.00017057      -8.76248743
H        9.24208403       3.68581882      11.45736249       0.04050214      -0.24402482       0.01262184       0.00251860       0.00217928      -0.00237199      -3.59967352
H        7.92787764       4.11831541      10.41600331      -0.07359618      -0.20094164      -0.07740128       0.00475503       0.00015470      -0.00466815      -3.77477223
Pb       6.53626382       6.62890913       0.08550760       0.56609111      -1.36596174       2.83176629      -0.00677988       0.01099953       0.00067695      -4.66553676
I        9.78312160       6.98547930       0.14445733      -1.51598950       3.88454585      -0.73929325      -0.01142108       0.01439569      -0.00484193      -1.93848690
I        6.21761402       9.83263827       0.03598981      -0.55737292       1.57606236      -0.14443895      -0.01584031       0.00423669       0.00492104      -1.94817291
I        6.67731248       6.67829466       3.32199908      -2.11655766      -2.21939282      -0.52285197      -0.00101563      -0.00205701       0.00205879      -2.01763205
C        9.71199507      10.34199032       3.37556100       0.31842148       0.00002602       1.36664890      -0.00418298       0.00469856      -0.00585723      -8.91530552
H        9.89865912      11.22333885       3.99589311      -0.28208067      -0.09001880      -0.07578758      -0.00183544       0.00736928      -0.01137327      -3.47575482
N       10.74388048       9.63817173       2.96665167       0.89178592       0.37954872       0.60104004       0.00835551       0.00178871      -0.00425269      -8.74218727
H       11.68831562       9.93690498       3.18768844       0.02806379      -0.23508158       0.15741456       0.00140161       0.00671419      -0.00854070      -3.74083341
H       10.63058175       8.79123621       2.40756710       0.02337942      -0.15368409      -0.09467208       0.00287347       0.00861939      -0.01000059      -3.69857068
N        8.46401143      10.02988848       3.09690219       0.38394265      -0.00301110       1.10322795       0.00621841      -0.00198988      -0.00473107      -8.68697718
H        8.22007746       9.25230000       2.48567862      -0.51048121       0.36987097       0.24479707       0.00843173      -0.02036096       0.01309432      -3.67869286
H        7.70797466      10.64508320       3.39004213      -0.01088959       0.32937039      -0.06986712      -0.00238909      -0.00695418      -0.01056932      -3.80330493
Pb       6.59606440       6.52220212       6.57495798       2.80636345       2.44291924      -3.09450497      -0.00737892       0.00294944       0.00632555      -4.66298729
I        9.88937583       6.81004241       6.63774865      -1.72781998      -1.13279603      -0.17954037      -0.00753760      -0.00118665       0.01034705      -1.96014628
I        6.52864876       9.79175968       6.66180126       1.26142245      -1.13129095      -0.11019147       0.00341631       0.00865030      -0.01054472      -1.98793112
I        6.38431323       6.70640485       9.81630051      -1.88769661       3.03382739      -0.26981531      -0.00479546       0.00235471       0.00578740      -2.01327565
C        9.74903093       9.64230707       9.43429561       0.40531830      -0.42416783       0.36050743       0.00641216      -0.00141533       0.01107995      -8.87419463
H        9.11383778       9.24609745       8.63605822       0.12314299      -0.10775010       0.17501764       0.01256560      -0.01246757       0.00721432      -3.47586827
N        9.20946367       9.86935637      10.61363524      -0.32443376       0.13664537      -0.33957966      -0.00872340       0.00018770       0.00248854      -8.72722636
H        8.23549583       9.65660887      10.80693315      -0.09369580       0.35152225       0.18142156      -0.01054070      -0.00469514      -0.00618510      -3.75855311
H        9.72707393      10.34155980      11.35753657      -0.02093004       0.15211587      -0.00767439      -0.02360873       0.01823495       0.00266433      -3.69744690
N       11.02202269       9.85815898       9.17510041       0.66856998      -1.16451219       0.45570083      -0.00047959       0.00376650       0.01824169      -8.68789370
H       11.64173257      10.28642128       9.86274276      -0.15058426      -0.34010789      -0.13855493       0.00045854       0.00165371       0.02382073      -3.68354252
H       11.41729223       9.69720344       8.24888586       0.12601497      -0.01383328      -0.31134039       0.00881211       0.00869541       0.01808759      -3.81331340
