96
Lattice="13.036720129786218 0.15850704405134308 0.0 0.1586462862701448 13.020468739875268 0.0 0.0 0.0 13.017959588757243" Properties=species:S:1:pos:R:3:momenta:R:3:forces:R:3:energies:R:1 md_step=30000 md_ps=30.0 epot_eV=-439.31597609930276 T_inst=366.36223749747245 src_md_ps=30.0 config_id=8 energy=-442.6198859537107 stress="0.0002764397428757403 0.00016137010395833292 -0.00016901383562085414 0.00016137010395833292 -0.0005806460366491582 0.000560745903318335 -0.00016901383562085414 0.000560745903318335 -0.0005401815418583536" free_energy=-442.6198859537107 pbc="T T T"
Pb      -0.00862281      12.80950357      -0.01093915      -2.38652374      -2.65074649       0.76677452       0.02305654      -0.02330533      -0.00348634      -4.66250564
I        3.30810466      12.49121354       0.44425989      -1.94778066      -1.12158331       0.18362277       0.01101565       0.00285000      -0.00954363      -2.02746518
I        0.22398413       3.07507494      -0.28856482      -3.18672377      -0.06093876      -0.50116759       0.00650568      -0.02454141       0.00486412      -1.99299273
I       12.69574768       0.18062209       3.18965245      -0.49127793       0.88476491       2.67763919       0.00789201      -0.00258735       0.02616967      -1.95051278
C        3.08643528       3.14522737       2.69674611       1.10970754      -0.62654270      -0.63582135       0.01186222       0.01131062       0.01757594      -8.90501106
H        2.65014511       3.20675096       1.69476101       0.06093581       0.18105605       0.20580352       0.01561383       0.01220980       0.01652550      -3.47134175
N        3.88347338       4.11220382       3.09731362       0.49141684      -0.64138568      -0.54618891      -0.00515910       0.00234754       0.01679950      -8.70538970
H        4.07881587       4.90107507       2.48431854      -0.05640289      -0.23179153       0.22251206       0.00658762       0.00081177       0.00899457      -3.79998276
H        4.35155777       4.08970270       4.00297713       0.01829513      -0.06324481      -0.11408762       0.00306838      -0.00083319       0.01499434      -3.67311987
N        2.78972626       2.10090536       3.43805956       0.17682036      -0.52247814       0.36182301      -0.00689563      -0.00286105      -0.00052501      -8.64250168
H        3.12675599       1.99318889       4.39738574       0.25812444       0.18171833      -0.46269243       0.00574098      -0.01763771      -0.00356723      -3.71134175
H        2.12590334       1.39630119       3.11760500       0.09530106      -0.04782019      -0.05088224       0.00135612       0.00899051      -0.01869171      -3.83337011
Pb       0.16263493      12.87914906       6.47714251       1.51095101      -1.47582776       3.03053668       0.00192522      -0.00633195       0.00625477      -4.65277960
I        3.45301708      13.20953413       6.43543381      -1.81993919       0.64849835      -3.00879877       0.01928395      -0.01387170      -0.00196057      -1.97725935
I        0.30719829       3.16443448       6.64281384       1.65046971      -0.17647495       2.31916915      -0.01328329       0.01264173       0.01193499      -1.96853327
I       13.05029468      -0.32057661       9.72241923       0.04842443       2.45822365       0.26710703       0.00642187      -0.00045193      -0.02536619      -1.94587039
C        4.01437571       2.96311865      10.19059121      -1.43171773       0.91834856      -0.48398609      -0.02756597       0.01603182      -0.01212968      -8.89324085
H        5.08539961       2.74413459      10.20110507      -0.25930544       0.09456361       0.08324890      -0.02721278       0.02160518      -0.03510097      -3.47431253
N        3.17837149       2.01691772      10.56495861       0.34432674       0.85462473      -0.98877394      -0.00990660       0.01277845      -0.01352294      -8.73125702
H        3.52264402       1.10920831      10.86789124      -0.12305624      -0.10125382       0.02256662       0.01025681       0.01601166      -0.01600636      -3.76206073
H        2.20439776       2.23112526      10.78371970      -0.07838776      -0.04168810      -0.16650351      -0.01390394      -0.00175734       0.00215726      -3.69216891
N        3.62542834       4.15188813       9.78138593      -0.60453710       0.58647628      -1.23548176      -0.00984763       0.01963877      -0.00473837      -8.72857377
H        2.64358396       4.42597421       9.77749637      -0.12196307       0.07423556      -0.16300143      -0.00773160       0.02540635       0.01298126      -3.66067540
H        4.31534436       4.86694548       9.55547671      -0.04912854      -0.23937308      -0.24068953       0.00030796       0.01210234      -0.00349091      -3.80197347
Pb       0.08314330       6.32985922       0.10109221       0.01698373       3.15682547       0.39923728       0.00858933      -0.00684700       0.01256375      -4.64947870
I        3.37481169       6.33795951       0.16083737       0.77260445       0.06933336       1.39465631       0.01720371      -0.01162890       0.01095931      -2.05145623
I       -0.44472912       9.57405636       0.32280956       4.33115563       0.92324498      -2.42330438       0.01688349      -0.00246958      -0.00869632      -2.00315865
I       13.00805519       6.35345307       3.30066351      -1.82542190      -1.08110054      -1.03295672       0.01288880       0.00506097       0.01202796      -1.95520016
C        3.87189477       9.40458588       3.34532663       0.05882985      -0.84222769      -0.07753654      -0.02252567      -0.00142329       0.00170201      -8.90013529
H        4.02342208       8.52088694       3.97248534       0.01844319       0.12267223       0.05649259      -0.01446738      -0.01214948      -0.00898496      -3.48037778
N        3.11883742       9.29492495       2.27145458      -0.06528659       0.92763751      -0.01957580      -0.02702553       0.00425448       0.00981910      -8.62427297
H        2.78515722       8.38660204       1.95591473      -0.03494132      -0.00553440      -0.27785037      -0.00914450       0.00577560      -0.00655247      -3.79304831
H        2.98497463      10.09642229       1.64656926      -0.04259968      -0.07850794       0.18261908       0.00564145       0.00043053      -0.00782059      -3.73978708
N        4.42537673      10.53738324       3.72325121       0.31438545       1.12930908      -0.07795016      -0.01495301      -0.00865682       0.00742401      -8.69495260
H        4.37302085      11.36662457       3.13182117      -0.04196242       0.02278085       0.02346080       0.01034948      -0.00019619       0.01244463      -3.67215810
H        5.01577221      10.57831705       4.55082264      -0.47860173       0.04591095      -0.03366435      -0.00832207      -0.01424481      -0.00111899      -3.81760628
Pb       0.37042627       6.46030828       6.50653338      -0.47485420      -0.90798846      -0.45940066      -0.00835281      -0.00067068       0.00245569      -4.66101696
I        3.55039833       6.48058453       6.29897879       0.14655008      -0.76428974      -2.09455664       0.02608891      -0.00422193      -0.00482335      -1.95441968
I        0.50418148       9.70986327       6.29818327      -3.57308609      -4.36650013       3.72926385      -0.02009043      -0.03029958       0.01382333      -1.91064501
I       13.57518087       6.70050010       9.84173559       4.60187845      -2.52484738       0.82821311      -0.00436727      -0.00485460       0.00341900      -2.04371962
C        3.14000625       9.48304374       9.76432736       0.22630170       0.37284394      -0.40696516      -0.00646745       0.01106772       0.00983765      -8.91089649
H        2.09532751       9.16461883       9.81446777       0.27103273       0.24794965       0.15748191      -0.00102323       0.00984052      -0.00070140      -3.46269619
N        3.44015887      10.52412158       9.01868970      -0.07039575       0.44517320       1.59265424      -0.00829533       0.01581181       0.00986494      -8.67562429
H        2.71660968      11.02090704       8.50607958      -0.23399362      -0.10398667      -0.07175452       0.00941723       0.02228144      -0.00246289      -3.78561639
H        4.38958954      10.89209554       8.95834190       0.12373780      -0.16129405       0.06349122       0.00058645       0.00072964      -0.00653871      -3.71571184
N        4.03400677       8.79811898      10.44510562       0.40113608       0.59859306      -0.28667586      -0.01224108       0.00840249       0.02066439      -8.68750066
H        5.01960396       9.05440080      10.45474544      -0.13118566      -0.02558755       0.33876079      -0.01005135       0.00543280       0.01899036      -3.65052695
H        3.75778771       8.01605343      11.03860954      -0.18955691       0.16888945      -0.02915826       0.00704115       0.00099994       0.00290898      -3.84367237
Pb       6.64538623      12.95859802       0.04245731       0.30432691       0.50952511      -0.89913211       0.00400246      -0.02077889       0.01169043      -4.66563154
I        9.81258667      13.25269217      -0.38664343      -2.23588081       0.46764065       3.27735446       0.02779805      -0.01777130       0.01475317      -1.97651158
I        6.45834709       3.22504401       0.22303500      -0.57925881      -1.13298584       1.82941482       0.00758078      -0.02859090      -0.01025104      -1.88558944
I        6.88880820      -0.08865117       3.26962032       2.20505017       1.37224581       2.31194260       0.01316456      -0.01460970       0.01272234      -1.99128521
C       10.27125927       3.32339258       3.60922811       0.04608185       0.53075300      -0.27540051      -0.01103820       0.00957037      -0.02893576      -8.92313517
H       11.30456548       3.26737230       3.25876432      -0.05133378       0.35538891       0.08575731      -0.01334074       0.01335852      -0.02698737      -3.45204330
N        9.30407257       3.42458993       2.71840701      -0.79384186      -0.59714948      -0.40784588       0.00346275       0.00827770      -0.01026624      -8.77646879
H        8.33478577       3.54175492       3.00449228      -0.04074837       0.01335947       0.17472742      -0.00648461      -0.01155721      -0.01534868      -3.62706537
H        9.50310569       3.52691208       1.72926854      -0.20814105      -0.10682246      -0.47235762      -0.01313277       0.00085385      -0.01897567      -3.75290150
N       10.04812833       3.26537151       4.90417731      -0.18511606       0.34489734       0.77553821       0.01463992       0.00645462      -0.01159082      -8.63639449
H       10.83412334       3.22397025       5.55444672      -0.10027548      -0.34649998      -0.22924619      -0.00241126       0.00023486      -0.02636938      -3.82721780
H        9.09608952       3.28206388       5.28361704       0.13851080      -0.21892071      -0.24640255       0.00924013      -0.00206598      -0.00011035      -3.75908199
Pb       6.66959467      13.13761399       6.50258905       4.26248690       2.15296887      -1.45575482       0.01515945       0.00701972       0.00957141      -4.64124422
I        9.93821257      12.95501125       6.51913929      -0.61068832       1.08665416      -1.17832554       0.01037179       0.02323590       0.00792513      -1.95716500
I        6.52161791       3.32874841       6.07255872      -1.97798112       0.57050079      -1.50075219       0.00728017      -0.00675294       0.00292325      -2.05113079
I        6.27353344      -0.07663901       9.77405249       0.38266159       1.34907235      -2.58579853      -0.00251648       0.00326610       0.01098583      -2.01359379
C       10.26979411       3.10239115      10.02337449      -0.63705409      -0.36756015      -0.85274783      -0.01293832       0.00101280       0.02734733      -8.91370712
H       10.24737858       3.06710677      11.11493607       0.27238440      -0.20657102      -0.12652422      -0.02741988       0.00144030       0.02240722      -3.46340271
N       11.01368754       4.01690205       9.44445842      -0.10334297      -0.01802939      -0.12538542      -0.00076590      -0.01433829       0.02008923      -8.64970104
H       11.59189881       4.65538671       9.98625272       0.00931916      -0.17168159      -0.34162299      -0.00104744      -0.01563267       0.01749808      -3.80913950
H       11.09676832       4.09037116       8.43096127      -0.19436663      -0.14027577       0.12178164      -0.00942836      -0.00688362       0.02250399      -3.71786601
N        9.52779361       2.24067197       9.35424689       1.05666058       1.53801678      -0.08602627      -0.01699615      -0.00398117       0.02937850      -8.71310561
H        9.62152663       2.11813504       8.34562955       0.09795497       0.19779714       0.16217971       0.01172547      -0.02050916       0.03793890      -3.68165934
H        9.01351464       1.51812608       9.85103510       0.26020880      -0.10109515      -0.03786095      -0.02953713       0.00676432       0.02426195      -3.76721812
Pb       6.76072491       6.44090341       0.08126790      -1.13891663       0.87836676       0.14077460       0.00471711      -0.00640093      -0.00118219      -4.65918835
I        9.93162814       6.00188443      -0.08424950       1.48683693      -0.04697382       2.53476104       0.02609090      -0.01069844      -0.00809059      -2.00045462
I        6.86481549       9.72274259      -0.15121203      -0.55966059      -1.12336791       0.35664908       0.00935828      -0.01289838      -0.01746472      -1.90095131
I        6.94462429       6.72166932       3.28549210      -4.63117993      -1.23637026      -2.71210277      -0.00176295      -0.00552861      -0.02111016      -1.91584228
C       10.22052651       9.48910186       3.67644172      -0.41901270       0.33080595      -0.14984429       0.00678060       0.00711569      -0.01103938      -8.91033015
H       11.05233123       8.85394926       3.35358731      -0.15801259      -0.09657978       0.33024953      -0.00274927      -0.00139173      -0.01236603      -3.46020863
N        9.82194335       9.39161969       4.92674868      -0.02488212      -0.06897495       0.97916630       0.00552680       0.02049871      -0.02042545      -8.58730438
H       10.19755801       8.66117713       5.53750825       0.09877947      -0.07034566      -0.58579982      -0.01907932       0.03330290       0.00338309      -3.85721634
H        9.03589684       9.93045083       5.29244726       0.07383082      -0.00681231       0.15318967      -0.00049810       0.02523217      -0.02463018      -3.71987529
N        9.68524235      10.31243137       2.80153911       0.21435677       0.01253431      -0.48810392       0.01996673       0.00861418      -0.03128574      -8.71666347
H        8.90622749      10.93542100       3.03943906       0.18001024       0.18347051      -0.18304245       0.02999763       0.01362182      -0.01825786      -3.74068339
H       10.06413844      10.36384041       1.86033520      -0.33914279      -0.17253025      -0.26884960       0.00708304       0.01415691      -0.01919230      -3.73199061
Pb       6.80325658       6.55185959       6.51270636      -0.80903634       1.40779665      -0.58851860      -0.01187373      -0.00735819      -0.00744820      -4.66039261
I       10.07846830       6.44584303       6.87765012       0.76819083      -1.08334890       0.33814123      -0.01720066      -0.01295891       0.00043017      -1.96031298
I        6.66047261       9.83521465       6.83251164       5.03869767      -2.28011435       1.23758576       0.00139064      -0.00218402       0.01297900      -2.05540271
I        6.72898905       6.32877132       9.76296671       0.92165007      -1.71808940      -0.67654029       0.00089450      -0.01246804       0.00374563      -2.00652102
C       10.30352349       9.73194466      10.02159626       0.37445980       0.59884603      -1.00738378      -0.00913428       0.00345327      -0.01365843      -8.90382858
H       11.20653720      10.05058230      10.54945221      -0.08572785       0.26254849       0.26062721       0.00906466      -0.01018748      -0.00948214      -3.47388832
N        9.94977880       8.46553509      10.09022653      -0.14579124      -0.28721143       0.01100281      -0.00409378       0.00108467       0.00249964      -8.70913130
H       10.49766751       7.79855107      10.62661368      -0.14912253       0.09442455      -0.30173568      -0.01039642      -0.00216811      -0.00366359      -3.77839825
H        9.07694225       8.11945733       9.69183471       0.07048852      -0.15794133      -0.05729092      -0.00187752      -0.00601129      -0.01132926      -3.68711065
N        9.62498190      10.63640199       9.34788358       0.42197861       1.23828165      -0.48945987       0.01025014      -0.01916825       0.00227398      -8.74970420
H        8.78487814      10.40049914       8.81912905       0.07067079      -0.12854678      -0.09698995       0.00107944       0.00115670       0.00221675      -3.70234298
H        9.95131211      11.59541895       9.29849040       0.09373578       0.13824348       0.32829213       0.01234608      -0.00981452      -0.01239091      -3.73196524
