96
Lattice="13.036720129786218 0.15850704405134308 0.0 0.1586462862701448 13.020468739875268 0.0 0.0 0.0 13.017959588757243" Properties=species:S:1:pos:R:3:momenta:R:3:forces:R:3:energies:R:1 md_step=9000 md_ps=9.0 epot_eV=-437.8494252373123 T_inst=382.69357452032307 src_md_ps=9.0 config_id=1 energy=-442.69928112732407 stress="7.164652123973877e-05 0.00021801208810714643 0.0001427795037010785 0.00021801208810714643 -0.00021360901151997876 0.00024005995786794616 0.0001427795037010785 0.00024005995786794616 -0.00023580646735258716" free_energy=-442.69928112732407 pbc="T T T"
Pb       0.14243729      13.00058925       0.12975902       1.08735671       0.87595848      -1.87647525       0.00849803      -0.00181924       0.00781532      -4.66579804
I        3.39212429      13.18298878       0.15699809       0.31778469       1.92018874       0.37506600      -0.00300470       0.00175658       0.01537645      -1.96771449
I        0.23195862       3.23833665      -0.05842215      -1.30489777       0.60341671      -0.28843832       0.00562015      -0.00320196       0.00227991      -2.00222479
I       12.99725485       0.45127103       3.44695404       0.55480268       2.46936793      -0.83592237      -0.00017177       0.00680411       0.00696872      -2.06033430
C        3.17778276       3.31029884       3.04990157      -0.41577569      -1.09671432       0.85765703       0.00534169      -0.01152220       0.00304277      -8.88575843
H        2.55530205       2.96465094       2.22014414      -0.16800369       0.10316241      -0.01200141       0.01054450      -0.02729210       0.00622797      -3.47344275
N        2.65626470       3.34410966       4.26076985       0.07204318       0.22501934       0.11653028       0.00009606      -0.00289052       0.00161203      -8.74740642
H        1.70359047       3.03978808       4.44126256      -0.03956181      -0.21961003      -0.05507675       0.00134638      -0.01086158      -0.00047563      -3.76478459
H        3.13205079       3.82732146       5.02177271      -0.00167686      -0.04951786       0.10604455      -0.00740150       0.00659728      -0.00276734      -3.66613356
N        4.41899967       3.67197107       2.79966769      -0.32288725       0.57080342       0.08792052      -0.00047147      -0.00290083       0.00305118      -8.72233817
H        5.03928773       4.00097002       3.53765952      -0.27931674      -0.01490023       0.05113912      -0.00334883       0.01408681      -0.00139378      -3.64281804
H        4.81436360       3.61936462       1.86195406       0.07248888       0.08150441      -0.32670258       0.00355310      -0.01167939       0.00367322      -3.82006906
Pb       0.07624647      13.01302256       6.78900547       4.44456200      -6.83456393      -0.57862192       0.00497333       0.00423308       0.00370681      -4.66868742
I        3.32824104      13.28100581       6.85723654      -2.20101117      -0.39539000       3.00263152       0.00288159       0.00768305       0.00049365      -1.93795882
I       -0.23804243       3.19280628       6.76497465       2.53262345      -1.02364698      -0.81040440      -0.00996345       0.00014943      -0.00227856      -1.94024958
I       12.97098859      -0.08074782       9.96272299      -0.76603456       1.73384069       2.25597049       0.00065094      -0.00232334       0.00294109      -1.93408605
C        3.08377318       3.41007335       9.34603494      -0.15386074       0.82444788      -0.02821333       0.00628816      -0.00274662      -0.01092431      -8.92408685
H        3.18842303       3.07300918       8.31128553      -0.12851420      -0.34240788      -0.01003472       0.00940788      -0.00006782      -0.01019352      -3.45580133
N        2.84431241       2.49908315      10.26697453      -0.22066671      -0.47013017       0.55227180      -0.00119344      -0.00418739      -0.01241760      -8.75389358
H        2.73391944       1.52307401      10.01132960       0.03995933      -0.25042304       0.03638310      -0.00207623      -0.00629862      -0.02085030      -3.73166214
H        2.58340020       2.75328885      11.21991668      -0.25173018      -0.08339509       0.19389435       0.00919402      -0.01251042      -0.01281996      -3.68781024
N        3.21867130       4.69294159       9.60694939       0.00690909      -0.29274575      -0.36704028       0.00774720      -0.00695232      -0.00540916      -8.65537736
H        3.18542500       5.06518979      10.56329314      -0.02858725      -0.08354274       0.10991189       0.01002674      -0.00586312      -0.00721824      -3.75746319
H        3.36188200       5.35551051       8.84543025       0.02746761       0.38520966       0.12850141       0.01637725      -0.00478321      -0.00711839      -3.80126523
Pb       0.15605403       6.46639304       0.03848335       4.63126957       2.75150377       1.48572016      -0.00670914      -0.00529464       0.00557957      -4.68254263
I        3.41271710       6.35876210      -0.12310699       5.09714087       0.52080264      -2.21269359      -0.00179378      -0.00104314      -0.00447699      -1.98873772
I        0.30522827       9.74742633       0.15985668      -4.12775120       1.66984152      -1.24412333       0.00372900      -0.00609750       0.00285499      -2.00121074
I       13.22304322       6.54976327       3.26603944       1.39052315       0.39825657       0.34794257      -0.00836084       0.00577597       0.00132303      -1.90651659
C        3.39950011      10.08340026       2.82194447       0.46506739       0.43745087      -1.15502975       0.00291291      -0.00677742       0.01087814      -8.89350260
H        3.34591390      10.79503968       1.99304312       0.05519785       0.18673593      -0.08123375       0.00324939      -0.00720389       0.00205373      -3.49130151
N        4.47086051       9.32821937       2.93143194      -0.35307453      -0.42314919       1.01452347      -0.00723934      -0.00436908       0.00573117      -8.68373119
H        5.22795788       9.40531281       2.25212350       0.16635887       0.00985484       0.00423224      -0.00534778      -0.01584740       0.00091714      -3.84097784
H        4.64515988       8.75307192       3.75399406      -0.18029090       0.36027799      -0.25475568      -0.00052839      -0.00284937       0.01064137      -3.65076819
N        2.38311434      10.02482586       3.65654452      -0.99150140       1.73982537       1.00243749       0.01207425       0.00414858       0.01142377      -8.75227943
H        2.34486184       9.34023958       4.40907076       0.00725553       0.31049531       0.01598308      -0.00424589       0.00710229       0.00751037      -3.64127331
H        1.58541653      10.64513302       3.55145084       0.17540838      -0.10988513      -0.09464684       0.00479288       0.01350863       0.00747006      -3.77303739
Pb       0.05107964       6.41182966       6.50981023       0.31126734       1.53501993      -2.95823184      -0.01103149       0.00368158       0.00326446      -4.66906860
I        3.40449725       6.51047668       6.28120017      -1.67016107       0.07687260      -2.97058676      -0.01357007       0.00176692      -0.00112644      -2.03685899
I        0.23831223       9.68486633       6.58548934       3.42154180       0.49951286      -2.88552103      -0.00300675       0.00544907       0.00498414      -2.04565546
I       12.84040969       6.69908872       9.78658535       0.22791133       3.79571672       1.16208732      -0.00864336      -0.00389855       0.00601506      -1.96507979
C        2.89519014       9.51854472       9.76962760       0.26246633      -0.01274407      -1.48653848      -0.00009807       0.00186197      -0.00312268      -8.93243159
H        1.98548954       8.91152984       9.79703252       0.12001304       0.13948387      -0.12879674       0.00158872       0.00258128       0.00047861      -3.46463300
N        3.45840229       9.85662298      10.91070899      -0.22200421      -1.59025048      -0.36667751       0.00154932       0.00504761       0.00680743      -8.75123676
H        3.03679201       9.58452057      11.79353008       0.04265424      -0.35860171      -0.28212163       0.00012206      -0.00262745       0.00120640      -3.75116306
H        4.31846067      10.40536397      10.93859679       0.13207910      -0.06760758      -0.06611121      -0.00466572       0.00368185       0.00270669      -3.68804546
N        3.38346805       9.86638668       8.59751427       0.47110408       0.42618545      -0.41901284       0.00009228       0.00171187       0.00366571      -8.72476615
H        4.18587345      10.49030010       8.51244292      -0.03478210      -0.13435339      -0.17386962       0.01668810      -0.01262330       0.00383816      -3.68188769
H        2.90121628       9.60588983       7.74132640       0.03835909       0.00424514       0.05263371       0.00758812       0.00234272       0.00293197      -3.77989401
Pb       6.60690637      13.03295153       0.09655400      -3.86244066      -2.62395167       2.42297150      -0.00156062      -0.00213237       0.00029322      -4.66049403
I        9.90451288      12.91347997       0.40384345      -1.10337181      -6.01214130       1.58854011       0.00847268       0.00477952      -0.00019593      -2.00207234
I        6.69305574       3.20286814      -0.22603439      -0.13498830      -0.76540079       0.18961081      -0.03553758      -0.00443851      -0.02888844      -1.99125258
I        6.31752385       0.04304224       3.33031512       0.29060324      -0.61319018      -0.67891549       0.00595427       0.00395360       0.00209248      -1.90293727
C        9.58226392       3.12545401       3.36655318       0.26871451      -0.39691041      -0.25152592       0.00268247       0.01461055      -0.00864779      -8.92155635
H        8.69016454       3.72752400       3.17158701      -0.01032162      -0.03513347      -0.20475629       0.00108236       0.01454588      -0.01007032      -3.45505081
N        9.45000037       2.00438676       4.04198713       0.07052050      -0.64479010      -0.57749181      -0.00057463       0.01565967      -0.00879898      -8.66229483
H        8.53683990       1.67783734       4.34941732       0.03784992       0.06196675      -0.02629185       0.00180128       0.00517817      -0.02567432      -3.81244701
H       10.25029950       1.41163885       4.26128206       0.24119724      -0.20883928      -0.10634579       0.00399394       0.01189343      -0.01516893      -3.70417344
N       10.74288806       3.56390686       2.92199884       0.08963893       0.42499800      -0.82429235       0.00099583       0.01540626      -0.00463356      -8.72099916
H       11.59241754       3.01685638       3.06236513      -0.09105757      -0.04818478      -0.07218706      -0.00236092       0.00834140      -0.02064095      -3.68008952
H       10.81448106       4.42649478       2.38859153      -0.20208672       0.02309960       0.15637206      -0.00075230       0.01600316      -0.00789393      -3.79040297
Pb       6.54403545      13.02047446       6.62782986       3.25360584       5.71604707       0.88220268      -0.00485021       0.00767172       0.01754895      -4.66260935
I        9.86458078      12.75935888       6.82533083      -0.45977230      -0.79889032      -2.23094496      -0.00978703       0.01469848       0.00334234      -1.94824774
I        6.73916246       3.31761682       6.63291904      -3.26844633      -0.80466162       0.01462108      -0.00284555       0.00281714       0.01149962      -1.97132444
I        6.12481219      -0.46721664       9.83310305       1.32155058      -2.46680351       1.61441731      -0.01093552      -0.00545403       0.01810011      -1.94919773
C        9.41219071       3.38136383       9.92085570       0.18489244       0.60813857       0.82504730      -0.00235146      -0.00913263       0.00609548      -8.91630175
H        8.59593020       2.72905980       9.59846864       0.26588417      -0.48649064      -0.20150283      -0.00623235      -0.00379865       0.00888978      -3.43524731
N        9.72768715       4.40620006       9.15753365      -0.31247644       1.69555119      -0.17409377       0.00483025      -0.01089365       0.00432903      -8.72271085
H        9.22426910       4.58536868       8.29271829       0.20158689      -0.11474137       0.16468079       0.00295482      -0.01170720       0.00289243      -3.76554988
H       10.46985907       5.06335617       9.40805967      -0.02050601      -0.14844599       0.52234904       0.01625047      -0.02663641      -0.00618392      -3.71030722
N       10.03802112       3.09940526      11.04748015       0.25403535       1.00010910       0.01803266      -0.00421241      -0.00876236       0.00533293      -8.70025675
H       10.78347346       3.69107643      11.41500165      -0.12924287       0.29046283      -0.02511778       0.00048219      -0.01136880       0.00345294      -3.70296323
H        9.73031644       2.33503369      11.64397009      -0.15120091      -0.20065202      -0.32324439       0.00399872      -0.01668303      -0.00137762      -3.77100502
Pb       6.67304987       6.43446854      -0.14072482      -2.62366599      -4.50128470       1.44609859       0.00026183      -0.00613029       0.00909734      -4.65298394
I        9.94228661       6.26645644       0.13304753      -0.68622019      -1.36054894       2.02715749      -0.01058143       0.00222385      -0.00141246      -1.96518676
I        6.67336284       9.73354207      -0.05781841       0.68819608      -0.00993270      -2.70211169      -0.00220650      -0.00320484       0.00809901      -2.04527083
I        6.88485483       6.41350262       3.17416689      -2.37971029      -2.20442505      -1.47246596      -0.00271078      -0.00297605       0.00707411      -1.97530680
C       10.31253108       9.35790239       3.23847383      -0.82043104      -0.10068972       0.42360310      -0.00094839       0.01600426       0.00204229      -8.87356337
H       10.44660739       8.40500420       3.75729637      -0.18118415       0.04782520       0.10079259      -0.01008290       0.01358630       0.00071451      -3.49014503
N       10.97129245      10.40624326       3.68110459      -0.51979550       0.45530078       0.39818836       0.00201959       0.00503104       0.00032111      -8.68049683
H       11.57674508      10.33383296       4.49999807       0.11637729      -0.12368307      -0.00512439      -0.00122170       0.00590877      -0.00673373      -3.85544208
H       10.96467355      11.28981146       3.17384161      -0.12122879      -0.31696741       0.12596167       0.00561023       0.01261363      -0.00338115      -3.65001465
N        9.49210448       9.39954246       2.21169673      -1.01421453      -0.77305239       0.02413952      -0.01082566       0.00383802      -0.00576477      -8.68865326
H        9.34588683      10.25935335       1.68196646       0.06464737       0.28212741      -0.19163851      -0.00180509       0.01254648      -0.00642479      -3.69745713
H        9.01678956       8.55859396       1.89387854      -0.02119336       0.08195755       0.35383157      -0.00317738       0.01723948       0.00312967      -3.81070394
Pb       6.68133203       6.60721740       6.42729907      -0.74898273      -1.43540954       3.19709686      -0.00908681      -0.00429002       0.00229542      -4.67786859
I        9.91198233       6.88544917       6.36311787       1.54171195       1.61262686      -0.61518226      -0.00498728      -0.00668707      -0.00516017      -1.96315994
I        6.36868708       9.81815784       6.20676420       1.16679493       0.63938970       2.67893217      -0.00823836       0.00287730       0.01044308      -1.94429066
I        6.69908260       6.92107799       9.69594741      -1.60726819       2.53262713       0.19782786       0.00426576      -0.00169819       0.00126314      -1.93315786
C       10.12506257       9.91405273       9.89447708      -1.20171695       0.86158505      -0.35734491       0.00485855       0.00329196       0.00160750      -8.91248181
H       11.09476932      10.17757263       9.46306504      -0.15005480       0.43636308      -0.02001681      -0.00031039       0.01957479       0.00064773      -3.45035170
N        9.07030061       9.90544877       9.10663510      -0.62275667      -0.86632894       1.41466125       0.00329544      -0.01026072       0.00023592      -8.73419769
H        9.13325472      10.23031822       8.14556447      -0.20282757      -0.05078023      -0.36542948      -0.00152616       0.00171775      -0.00352712      -3.76811218
H        8.16879003       9.54835187       9.42149793       0.01792125       0.12195706      -0.15145623       0.01257387      -0.02118867      -0.00481275      -3.67369597
N       10.07003940       9.61204345      11.17631249       0.21905918       0.03426903      -0.12302691      -0.00223342      -0.00213798      -0.00852219      -8.68603926
H        9.17449649       9.46002764      11.64510285       0.02227630       0.18102493       0.05134081       0.00717522      -0.00372435      -0.00537861      -3.72608810
H       10.91206696       9.62838130      11.75120004       0.02057274       0.20348176      -0.12856995       0.00432104       0.00785495       0.00157414      -3.82135703
