96
Lattice="13.036720129786218 0.15850704405134308 0.0 0.1586462862701448 13.020468739875268 0.0 0.0 0.0 13.017959588757243" Properties=species:S:1:pos:R:3:momenta:R:3:forces:R:3:energies:R:1 md_step=21000 md_ps=21.0 epot_eV=-438.6648923726629 T_inst=342.8976085359996 src_md_ps=21.0 config_id=5 energy=-442.6604339110897 stress="-0.0007915566220440997 0.00046477243221273285 -0.00033462277288690847 0.00046477243221273285 -0.0004617938447535315 -3.3348697153350163e-06 -0.00033462277288690847 -3.3348697153350163e-06 -0.0005990746434478681" free_energy=-442.6604339110897 pbc="T T T"
Pb       0.23275392      12.85798031       0.14463890      -2.41912157      -2.22655835       3.85294257      -0.00048186       0.00063515       0.01916422      -4.66969004
I        3.46870767      13.01687621       0.00841463      -1.50525729       0.49546393       1.95718649       0.00120928       0.01242023      -0.01456912      -1.92462508
I        0.05123278       3.09837955       0.23750832       1.08622906       0.62794095      -0.62899774       0.03119304      -0.00889969       0.01509587      -1.95416270
I       13.33210592      -0.17549498       3.38505517      -0.17307738      -2.86339024      -2.10603918      -0.00135277      -0.00503171       0.01910553      -1.96298695
C        3.11487315       2.55956394       3.29536879      -1.15610334      -0.40408580      -0.50816242      -0.00321537       0.02096843      -0.00674177      -8.88807738
H        2.23116804       1.93360081       3.14158294       0.08027844       0.14449966      -0.11104824       0.00945343      -0.00070240      -0.00359761      -3.49332683
N        3.81328072       2.91963267       2.24141836       0.77294206       0.29924973      -0.08130182      -0.01130296       0.02921774      -0.00050416      -8.70048129
H        3.62041288       2.49833926       1.33454068      -0.15548635      -0.27989129      -0.10122411       0.00609851       0.01463008       0.00107633      -3.78466628
H        4.61209245       3.54924343       2.31906755      -0.01949423      -0.24094616      -0.23480232       0.00276530       0.01569755       0.00995530      -3.68136440
N        3.39925879       2.93577934       4.52522714      -0.23901084      -0.26098708       0.69175958      -0.01319358       0.03425588      -0.00519312      -8.69048820
H        4.29915865       3.35472101       4.76944291       0.13850820       0.08361237      -0.21915616       0.00029598       0.00988769      -0.00893607      -3.71865797
H        2.81143790       2.63233038       5.29764246      -0.17104601       0.01331247       0.19904363       0.00090121       0.00332184      -0.00807217      -3.77463548
Pb       0.31098737      12.83573863       6.62568870      -0.58822011      -0.06650917      -2.21428793      -0.00241365       0.00229132       0.00356082      -4.65915345
I        3.55062851      12.67610888       6.57106989      -1.19648865      -1.53595040       0.38294582       0.00034055      -0.01494729      -0.00435896      -1.97167471
I        0.12403652       3.10416111       6.49468291       0.40602834      -1.74650836      -0.95213763       0.02090768       0.00421732       0.00557657      -2.00894005
I       13.07587850      -0.01828622       9.89665680       0.79922474       4.04077173       1.68803358       0.00028546      -0.00206718      -0.00653531      -2.03020056
C        3.43931759       3.84071590       9.92990904       0.39499807      -0.52100860      -0.03455590      -0.03655523      -0.00709894       0.01263323      -8.87420614
H        3.34883772       4.15975685      10.97141060      -0.12713474       0.02400873      -0.01900290      -0.01308686      -0.03668205       0.03120493      -3.46871557
N        2.41499143       4.04607910       9.12773539      -0.03812077      -1.07265081      -0.62600285       0.02332270      -0.00942825       0.04199749      -8.67339228
H        1.60587790       4.58382584       9.43553749      -0.10524989      -0.23573262       0.11683303      -0.00867653      -0.01191815       0.02546572      -3.82971762
H        2.44853953       3.80475984       8.13918889      -0.08856061      -0.05911821       0.14687323      -0.00076270       0.00622456       0.02305209      -3.65456219
N        4.54936076       3.24101789       9.55086556      -0.20715422       0.11158927       0.16147825      -0.00130772      -0.00067284       0.01530219      -8.62999718
H        4.81614673       3.15012552       8.56384129       0.17696041       0.08419232      -0.12612216      -0.01566622       0.00385102       0.01516026      -3.75304192
H        5.28805184       3.09031527      10.23763408       0.27476777       0.06333151       0.04561534      -0.00404067      -0.01761099       0.00860963      -3.80614859
Pb       0.01090374       6.35881359       0.06117330       0.86938389       1.52078849       0.77018243      -0.01807703      -0.00496281       0.00099493      -4.65726047
I        3.28572039       6.79354786      -0.36765123       1.43382171      -0.67331503      -2.94606906      -0.00872026      -0.00037996       0.00107330      -2.03970257
I        0.00800946       9.57337545       0.25012239      -0.31331137       0.31669833      -1.55005691       0.00935118       0.00749735       0.00654333      -1.90930200
I       13.18596485       6.52491742       3.33335623       2.12525173       0.42370719       1.20452569      -0.00863138      -0.00628399      -0.00071805      -2.04908893
C        3.50234227       9.39269472       3.16504836       1.54384540       0.90083190       0.03435444      -0.01487757      -0.00080473       0.00375159      -8.91353112
H        3.49097962       8.88429920       2.19638973       0.24857499       0.10661291      -0.12878438       0.00857480       0.00448058      -0.00035447      -3.44452127
N        4.39595185      10.33536826       3.37438288       0.26341072      -1.02760170      -0.66723628       0.00332808       0.00925391      -0.01005968      -8.66372239
H        5.09255438      10.56076069       2.66662323      -0.10314863       0.01519525       0.33525945      -0.00151538      -0.00674118       0.00930787      -3.82302493
H        4.46063360      10.82432321       4.26791117       0.32563633       0.10323218       0.05577187      -0.01774354       0.01542116      -0.01160713      -3.69645172
N        2.60758581       9.03657242       4.06370619      -0.96753443      -0.54363256      -0.07170604       0.00158494       0.00722384      -0.01504897      -8.65960628
H        2.57281746       9.45871948       4.99058767      -0.16278387      -0.37262594      -0.05193889      -0.00834375      -0.00496502      -0.00555703      -3.65979778
H        1.96673493       8.26190694       3.88727500       0.06363424      -0.08317155       0.21043263      -0.00822470       0.00491145      -0.02053076      -3.87126563
Pb       0.03993340       6.37663497       6.57712321      -0.86316943       0.59861427      -1.81244145       0.01157712      -0.01669921       0.03452340      -4.62980067
I        3.35124029       6.53736362       6.70391702       0.68925315      -1.72709267      -0.65514255      -0.00114360      -0.00009320       0.01492269      -1.87558225
I        0.32978030       9.62097457       6.99581659       0.20626354      -0.04862325       0.79866768      -0.00724671      -0.00564818       0.00366254      -1.95554917
I       12.49471863       6.53129838       9.84525363      -1.24496765       1.04386182      -2.13525639       0.00924941       0.00786022       0.00229159      -2.05691630
C        3.52867883      10.46810777      10.21562402       0.64919306      -0.75522064      -0.38604621      -0.00337826      -0.01443300      -0.01342854      -8.91040007
H        3.47678458      11.45497817       9.74609262      -0.03053267      -0.04922546      -0.29155083      -0.01188186      -0.01541496      -0.01411346      -3.46260247
N        4.71029565       9.90979245      10.36556742      -0.93085190       0.13838235       1.24644392      -0.00768907       0.00114193      -0.02157880      -8.68568192
H        5.55865320      10.42531078      10.14147608       0.10121053       0.09402880      -0.00989514      -0.02178413       0.02244284      -0.03031049      -3.80448713
H        4.81454848       8.98828948      10.78939702       0.13916323       0.00852012      -0.14033961       0.01606213      -0.00613850      -0.04105734      -3.68935290
N        2.40819148       9.87792994      10.57760208       0.26725190       0.17942462       0.83460539      -0.00692665      -0.00909267      -0.01678399      -8.65427218
H        2.42731200       9.06293961      11.19656928      -0.00826751       0.26727111      -0.08184439      -0.01328459      -0.01175882      -0.01860584      -3.72646852
H        1.51903388      10.36134289      10.46827542      -0.27495879      -0.37409528      -0.00627214       0.00582080       0.00638177      -0.02744063      -3.80214276
Pb       6.72501413      13.03841153      -0.00691274       1.46969143      -0.27940494      -2.31873692       0.00724989       0.01760571       0.01641649      -4.66561218
I        9.97293136      12.96022562       0.03505789       3.50667114       2.59196414       1.29261535       0.01030989       0.00429127       0.00195753      -1.95421334
I        6.54938325       3.30239047      -0.32231411      -0.11609140       3.78731539      -2.48558761       0.01465607       0.00406235       0.00547501      -2.04910613
I        6.56498014       0.18225749       3.21069166      -4.41438339      -3.52531508       1.20091198       0.01520816      -0.00212832       0.00912019      -1.92714059
C        9.83823950       3.25189375       2.81927300       1.12443171      -0.79252111       1.26499117       0.00804783      -0.00114052       0.01084239      -8.89985272
H       10.01459500       3.87379222       1.93612877       0.07044117       0.05992218       0.06367646       0.00199079       0.01592943       0.01655458      -3.47371126
N       10.85745198       2.61071251       3.34846146      -1.55481241      -0.58398814      -0.58934828      -0.01277258       0.00186548      -0.01635632      -8.71615133
H       10.75056497       2.04318260       4.19236932      -0.03616563      -0.10035607      -0.06967228       0.00993950      -0.02572123      -0.02704660      -3.71247106
H       11.77058317       2.63610188       2.90317039      -0.05655248      -0.10534138       0.13149245       0.00104349       0.00800244      -0.00100785      -3.76544343
N        8.61664873       3.19369766       3.30877252      -0.00871781      -0.93845080      -0.24892530      -0.00108275       0.00678365      -0.01049452      -8.68566604
H        8.35007458       2.49739291       4.00365411      -0.07304569       0.27672190      -0.14071780       0.00433539       0.03673692       0.02306088      -3.68298591
H        7.86816892       3.77068666       2.93170703       0.16749828       0.09579101      -0.22823730       0.00216308       0.00467133      -0.00652432      -3.80451530
Pb       6.81023448      12.97883954       6.44909265       0.00414578       2.33219638      -4.11313869       0.00824043      -0.00885181      -0.00734516      -4.66939176
I       10.06589969      13.17714832       6.22718117      -0.65374368       1.30279272       2.26130542       0.00807856       0.00171984      -0.00484745      -1.97943680
I        6.49259745       3.24640459       6.50831258      -1.08353820      -0.47776984       4.08000882      -0.00529101      -0.02176808       0.01394075      -2.02402562
I        6.72683704      -0.17537041       9.71252318      -0.03606025       0.69415444       1.54463113       0.00850096       0.00441781       0.00408542      -2.03939676
C        9.52979017       2.97871884       9.97599971      -0.07001756       0.04950971      -0.64679989       0.02539665      -0.00108098       0.00084249      -8.89574726
H        9.11153412       2.22865760      10.65397989       0.08374876       0.02183527       0.11349038       0.02323789       0.00364713       0.00791243      -3.45936525
N       10.74633772       2.78858580       9.51006847       0.94033567       0.97666531      -0.09893471       0.01477189       0.00923232      -0.00758152      -8.66369151
H       11.28518881       1.95482804       9.75143388      -0.09022805      -0.02443889       0.12843326       0.02878812       0.01177649      -0.02239699      -3.85272504
H       11.19370523       3.46087787       8.88930806      -0.06883911      -0.02603441      -0.16745133      -0.00182405       0.00266189      -0.03083489      -3.65284335
N        8.79241696       4.02320268       9.66451373       0.25987621      -0.09951790      -0.71194289       0.01203070       0.00222823       0.01057860      -8.71601724
H        9.08928174       4.71331778       8.97344242       0.21887914      -0.36822548      -0.33828346       0.02075436      -0.01309979      -0.00605537      -3.68733746
H        7.88610387       4.16962420      10.09956049      -0.45149759      -0.06315936       0.24551719       0.02269660       0.00770454      -0.00352490      -3.78216253
Pb       6.54585811       6.56038992       0.00398414      -0.14965391       0.00861929      -2.76083666       0.01362858      -0.00269364      -0.01174191      -4.65046915
I        9.80226698       6.48384680       0.36918629      -0.39801498       0.12564605       1.88909472       0.00852839       0.00591866      -0.01009927      -2.00103910
I        6.65010933       9.79916648       0.39456325       3.70930109       0.56564105       1.99958546      -0.01662681       0.00797357      -0.01583843      -2.04042551
I        6.10338250       6.03972880       3.16334384      -2.55826733       0.52552673       2.14838970      -0.01284941       0.00390190       0.00311449      -2.00469490
C       10.31486574      10.22986442       3.34450990       1.14305118      -0.31664571       0.33087380       0.00301364      -0.00983709      -0.00232526      -8.89495119
H        9.95784531      11.23116082       3.60165982       0.06493171       0.09410761       0.08171559      -0.00822087      -0.01093708       0.00906881      -3.45807292
N        9.60586864       9.50328338       2.50493853      -0.66775609      -0.08180303      -0.24608950      -0.00603200       0.00595406      -0.01532586      -8.60213263
H        8.76908745       9.87627511       2.05624834      -0.17030389       0.07827773       0.09570708      -0.01377006      -0.00730621       0.00021680      -3.83527351
H        9.97036534       8.63382265       2.10530791      -0.03503263       0.04146949       0.25132119      -0.02424066      -0.00756039      -0.00900412      -3.72111492
N       11.41561657       9.79407064       3.91847250      -0.40974283      -0.02657593      -1.51713872      -0.00622209       0.00110058      -0.02274020      -8.62377721
H       11.82523812       8.88713966       3.67923276       0.22075792       0.32521110       0.29899926      -0.01330129      -0.01417163      -0.00897178      -3.75611494
H       11.96039669      10.38977192       4.53757797       0.10710712      -0.12060185      -0.01181679      -0.00827183      -0.01232395       0.00192572      -3.81558897
Pb       6.53909116       6.54325703       6.46294219      -2.17867700      -3.29245452      -1.11491378      -0.01504952       0.00038883       0.01585460      -4.65305308
I        9.86117047       6.22258137       6.43116839       0.40849407       0.90390233       2.10957660      -0.00291085      -0.01465983       0.01912796      -1.94745382
I        6.93695314       9.75254387       6.12679689      -0.01775849       1.75392736      -1.05834157       0.00136007      -0.00884922       0.01260441      -1.98718487
I        6.68301240       6.89652980       9.70676002       3.14444968       1.31776258       1.61952462      -0.01370671      -0.01187050       0.01318382      -1.92318548
C        9.71908201      10.05494579       9.62225893       0.21104883      -0.01946048      -0.25726095       0.00001838      -0.00808969       0.00607440      -8.88352765
H        9.01602352      10.89422198       9.60729951      -0.32698164      -0.20555705      -0.10089876       0.00777113      -0.00417741       0.00451456      -3.49543981
N       10.44616761       9.86946489      10.70343609      -0.67741112      -0.59978593      -0.88855270      -0.00332138      -0.00419013       0.01370202      -8.69612626
H       10.39496178      10.51590090      11.48865605       0.05526630       0.35543490      -0.09108382      -0.00035769       0.01422483      -0.00865076      -3.80236290
H       11.12949296       9.11428547      10.75925715      -0.38159476      -0.22324259       0.12956431       0.00704984       0.00282814       0.00145623      -3.68548830
N        9.79188502       9.28519810       8.55739365      -0.61284854      -0.14949082       0.88167891      -0.01177687      -0.01196718       0.01371582      -8.66641726
H       10.39623792       8.46344475       8.53765081       0.21642447      -0.24650563       0.13042947      -0.00346680      -0.00733718      -0.01590161      -3.68717481
H        9.15592620       9.41662439       7.77006227       0.20440554      -0.15494860       0.07564206       0.00148797      -0.00162366       0.01094072      -3.82691056
