96
Lattice="13.036720129786218 0.15850704405134308 0.0 0.1586462862701448 13.020468739875268 0.0 0.0 0.0 13.017959588757243" Properties=species:S:1:pos:R:3:momenta:R:3:forces:R:3:energies:R:1 md_step=15000 md_ps=15.0 epot_eV=-438.5528897382759 T_inst=389.3414385365608 src_md_ps=15.0 config_id=3 energy=-442.66941268411233 stress="-9.506958275041507e-05 -7.893041927882396e-05 0.0004050053791635585 -7.893041927882396e-05 -0.0009626661351629022 -7.563904799186513e-07 0.0004050053791635585 -7.563904799186513e-07 -2.7255217370519953e-05" free_energy=-442.66941268411233 pbc="T T T"
Pb       0.25827438      12.90721424      -0.07082613      -0.65364768       0.79283073      -1.33341123       0.00200136      -0.00224402      -0.00025181      -4.66567416
I        3.48826355      12.84176511      -0.05851810       1.89259877       1.02934621      -0.12322650       0.00684037       0.01681702       0.01000119      -1.92841820
I        0.24915126       3.13121092      -0.16407014      -1.80349663      -1.05934826      -1.69925563      -0.00901162      -0.00463055       0.00365924      -1.99222197
I       13.48205324       0.25772252       3.28314187      -2.08419824      -0.45076166      -1.43661350      -0.00429773      -0.01112416      -0.00270382      -1.97243649
C        3.30671599       3.06050816       2.78592080       0.62930623       0.15537615      -0.97673083      -0.01405150      -0.00560303       0.01246749      -8.88568350
H        2.68473268       2.50974904       2.07332173       0.02354789      -0.15597634       0.27179677      -0.02426994       0.00555738       0.01296753      -3.46493460
N        3.36554391       2.62999926       4.02965715      -0.54010149      -2.11939672      -0.37260762      -0.00146406      -0.01327236       0.00194857      -8.68855972
H        2.83120964       1.81382201       4.31570610      -0.08988146       0.01876386      -0.06040671      -0.00332294      -0.01559952       0.00219627      -3.77562761
H        4.05828794       2.99167395       4.69105270       0.26859817      -0.19960834      -0.10084529       0.00305267      -0.02094673       0.00359498      -3.72142534
N        3.95525428       4.12088486       2.35671625       0.67846893      -0.97290420      -0.00848438      -0.01259085      -0.00106350       0.00783310      -8.61587047
H        4.55519836       4.68692563       2.96397547      -0.10619086       0.10833457      -0.18960322      -0.00700899      -0.00761053       0.00636887      -3.73417658
H        3.85135837       4.44994810       1.39752814      -0.13940645       0.08238958       0.05330534      -0.02443289       0.00318930       0.01425442      -3.83421091
Pb       0.24583546      12.83072844       6.46465154      -5.84654562      -1.86906456       1.03131146       0.00151510      -0.00743491      -0.00497818      -4.65439294
I        3.51861462      12.86490405       6.70672477      -0.14175629       0.73188481      -0.18668704       0.00247480      -0.00808422      -0.00275002      -2.05152649
I        0.06075818       3.07524839       6.57908704      -1.94575984      -0.87621605       2.86704119      -0.01005975      -0.00995094       0.00399959      -2.02908378
I       13.37584536      -0.47354124       9.77203890       1.58368887       1.18505805      -0.69169555       0.01449090       0.00311312      -0.00066103      -1.96302726
C        3.42886801       3.17462975      10.09537394      -0.54506466      -0.45524943      -0.12945380      -0.00387627      -0.00001819      -0.00152208      -8.90384878
H        3.75168573       3.50782528      11.08606292      -0.06451070      -0.15303754       0.07957102      -0.00166582       0.00520424      -0.00212659      -3.45944321
N        4.10108433       2.20520716       9.51101787       0.27279222      -1.35361001      -0.01174300      -0.00563695      -0.00222634       0.00368791      -8.64772106
H        4.89796945       1.75957702       9.96097513      -0.19641112       0.13840491       0.31662940      -0.00401458      -0.00152325       0.00315586      -3.79428360
H        3.80796965       1.80599251       8.61632294       0.16713849       0.31585438      -0.07453321      -0.00714134      -0.00622187       0.00494967      -3.73394342
N        2.39314571       3.76605403       9.53985050       0.16909559      -1.13597689      -0.20448877      -0.00258857      -0.00304181      -0.00119640      -8.68308067
H        2.03408604       3.48824643       8.62460791      -0.01749516       0.08228193      -0.04488170      -0.00276411      -0.00560125      -0.00157419      -3.70421665
H        1.89257185       4.51696810      10.01082369       0.11826887       0.02828170      -0.04371758      -0.00256072       0.00145309      -0.00587288      -3.79681440
Pb       0.06669992       6.37436454      -0.08176889      -1.16709366      -1.01045513       1.75348825      -0.00567174      -0.00565754      -0.00173889      -4.67104289
I        3.31210356       6.40991202      -0.48774461      -2.19178637       3.54509049       0.46844981      -0.00579616      -0.00749868      -0.00393771      -1.98300918
I       -0.19543639       9.63429043       0.06119570       1.07472583       1.57336428      -1.64552230       0.00262008      -0.00329090      -0.00155241      -2.05690259
I       13.16897237       6.54990751       3.19090142      -0.20727905      -1.12607139       1.14940531       0.01038054      -0.00943901      -0.00029691      -1.92874589
C        2.94389109       9.87385657       3.26336963       0.68142858       0.23858055      -1.04274775       0.01234486      -0.01416728      -0.00462280      -8.90328427
H        2.10452581      10.57042774       3.18018736       0.21751400       0.03367949       0.22569091       0.00848192      -0.00730511       0.00548025      -3.48468756
N        3.04376597       8.90790277       2.37449173      -0.78866134      -1.10974821      -0.16157090       0.00492857       0.00428555      -0.00312053      -8.71939761
H        2.34401839       8.79565706       1.64640094       0.21679931      -0.06813252       0.10924042       0.00596918       0.00154808      -0.00682560      -3.76833403
H        3.80343978       8.22745783       2.42014295      -0.12127297      -0.00611079       0.34022969       0.00816244      -0.00483210      -0.01285781      -3.69695383
N        3.80253195      10.05310078       4.24298515      -0.06510431       0.38461262      -0.31556948       0.00933668      -0.01153068      -0.00170064      -8.67223540
H        4.60338168       9.43505942       4.37296408       0.34597002      -0.21913792      -0.07477257       0.01401474      -0.01560858      -0.00907449      -3.66018892
H        3.69600795      10.82449598       4.90332348      -0.11515332      -0.01373365       0.08434555       0.01400939      -0.02000884       0.00206313      -3.84887326
Pb      -0.01154937       6.32861731       6.39786029       1.01442845       2.85823617       0.32290304       0.00025916      -0.00720564       0.00116198      -4.65555835
I        3.24086300       6.36114760       6.47293189       0.53282160      -2.12009753      -1.51030258      -0.00167483      -0.00557379       0.02022816      -1.95397638
I        0.01776793       9.61782628       6.17902548       1.96664369      -0.11377697       1.18358471       0.00257583      -0.00881388      -0.00253450      -1.97184006
I       12.75127372       6.58413546       9.73029521       1.28987827      -2.62073920       1.83179764      -0.01325284      -0.01137950      -0.00205904      -1.95654814
C        3.68631312       9.05509627       9.72855138       0.45758544       0.86957868       0.83567453      -0.00919709       0.01097345       0.00019110      -8.88418844
H        4.46068827       8.30217641       9.55045600       0.15844659       0.14355758      -0.07222169      -0.02104679       0.00577866       0.02074143      -3.47992480
N        2.63813084       9.06792051       8.93516528       0.66695794       0.13201117       0.20527402       0.00014109       0.02655272      -0.00603939      -8.68208393
H        2.55690425       8.38164370       8.18347392       0.11041039       0.17680505       0.31372352      -0.00042051       0.02011447      -0.00654453      -3.84184720
H        1.87924198       9.73642801       9.06778599      -0.29790159      -0.23209793      -0.04472760       0.01445001       0.03926597      -0.02717196      -3.66908754
N        3.85720465       9.89843841      10.72223146       1.23531194      -0.83454477       0.08499730      -0.01252222       0.02852151       0.00529096      -8.65592138
H        3.19628922      10.65217963      10.91115614      -0.14996124       0.05101898      -0.14138619      -0.00155363       0.02694275      -0.01269563      -3.66582594
H        4.66023016       9.82282017      11.34835634       0.11624103       0.09253944       0.02138779      -0.01635473       0.01946682       0.00512857      -3.85396229
Pb       6.73288083      12.90328316       0.03689309      -2.92803063       4.44321184      -0.66848864       0.00475337       0.00184979       0.00138967      -4.66908175
I       10.01017870      13.18193742      -0.04972381      -1.48841837      -1.28608720       2.73477883       0.00556961       0.00500572      -0.00133645      -1.92404743
I        6.58740197       3.12663749      -0.11849859       0.20781789       1.64144318      -1.87783537       0.00772087       0.00137650       0.01048358      -2.00664337
I        6.49547216      -0.10239723       3.25850564       1.74583073      -0.56699624      -1.34537883       0.01329969      -0.00670851      -0.00156647      -1.94442985
C        9.96176227       2.98389415       2.62499313      -0.53384132      -0.53093147      -0.25636967      -0.01056458       0.00872522       0.00876617      -8.90051691
H        9.74418416       3.02763004       1.55596829       0.14185674      -0.10127330      -0.08967282       0.00393386       0.01460111       0.00603573      -3.46307151
N        8.95790878       2.77370274       3.45393335       1.21506998       0.90169930       0.19345940       0.00668764       0.01081747      -0.00144148      -8.75005264
H        9.11655390       2.61600310       4.44750993      -0.13428833      -0.11108560      -0.23555196      -0.00619796       0.00287552       0.00153610      -3.65987532
H        8.03434161       2.54363360       3.10021144       0.01311797       0.32447264       0.09875019      -0.00644318       0.01272282      -0.00170265      -3.74911557
N       11.20304237       3.16997633       3.02006999       0.35714570      -1.13160795      -0.88021703       0.00298276       0.00762201       0.01628123      -8.74717722
H       11.47881438       3.10112671       3.99948472      -0.00478769      -0.28102079       0.34428128      -0.00926453       0.00853446       0.01200568      -3.66134863
H       11.94238374       3.30846310       2.33195945       0.09782384       0.07888314      -0.05482149       0.00102347       0.00998970       0.01828107      -3.81027069
Pb       6.78867371      12.92792501       6.48374244       3.57468986       1.91094696      -0.59965941       0.00296076      -0.00564999      -0.00120436      -4.64988982
I       10.05043900      13.20653702       6.12826258      -0.61293349       1.55283778      -2.38898517       0.00162616      -0.01069632      -0.00016163      -2.02621489
I        6.33698831       3.16572554       6.32626710       0.59583964       3.10348347      -0.12721075       0.00457297      -0.00486202      -0.00448398      -1.97985185
I        6.82185586      -0.33412167       9.78243617       1.52494241      -1.53546189      -2.63446431       0.00462408       0.00724327      -0.00014271      -2.00905200
C       10.21945610       2.99269330       9.89418251      -0.36608124       0.24296941      -0.16671533       0.00602717       0.00917926      -0.00512928      -8.89564713
H       11.01809530       3.50958256       9.35357262       0.03016608       0.13223939       0.18791580       0.00647571       0.00668570      -0.00300492      -3.44084696
N        9.85832448       3.45575297      11.07378983       1.55851795      -1.14479252       0.29864756      -0.00020495       0.01105699      -0.00674699      -8.66688266
H       10.29445545       4.27830172      11.48434781      -0.23277679       0.39098988      -0.05313984      -0.00176424       0.01210592      -0.00733447      -3.79569510
H        9.09110094       3.03499815      11.60336179       0.06366423       0.29165320       0.08982103       0.00040013       0.01035242      -0.00892846      -3.73403922
N        9.66278793       1.93821039       9.33600667       0.84198480      -0.88878721       0.90274055       0.00569965       0.00518375      -0.00374521      -8.59380865
H        8.95110678       1.37852180       9.81586120       0.01600655      -0.14373949       0.44574496       0.00307667       0.01077971      -0.00468482      -3.73564087
H        9.93363921       1.61397770       8.40667277       0.49633835      -0.08970281       0.08947771       0.00788945       0.00378814      -0.00142227      -3.84866539
Pb       6.64654732       6.41613860      -0.05581272      -0.76341030       3.15040575      -2.63728420      -0.00275013      -0.00123102       0.00021125      -4.64124610
I        9.84388210       6.51505873       0.24374532      -0.16714866       2.02470486      -0.75475843      -0.00227704       0.00383010       0.00702188      -1.96514888
I        6.63096321       9.64286857       0.21263530      -3.14098375       1.01506751       1.13975759      -0.00884692      -0.00210104      -0.00693775      -2.00954111
I        6.22212161       6.77852977       3.28313724      -1.00652151      -3.51299678      -0.25155147      -0.00588980      -0.00339074       0.00080380      -2.02001473
C        9.70202486      10.06270321       3.70205602       1.12582326      -0.18149605      -0.75805807       0.00068842      -0.01789556      -0.00925341      -8.88403095
H        8.88837739      10.40054147       4.35083668       0.16688591       0.25588403       0.15602120       0.00022957      -0.01707093      -0.00657876      -3.48281930
N       10.11266438       8.81744472       3.81893506      -0.18610755       0.21538327       0.03872697       0.00194644      -0.00797096      -0.01399972      -8.67368836
H        9.72641133       8.19762528       4.53208285      -0.17616068      -0.19633489      -0.18912292       0.01178670      -0.01543594      -0.01468902      -3.81618409
H       10.94870748       8.47841752       3.34084560       0.18852954       0.10864938      -0.15661064       0.00358896      -0.00714832      -0.02291777      -3.67694532
N       10.20849006      10.91785983       2.83964130      -0.46048045      -0.54191145       0.75614342      -0.00743338      -0.00478353      -0.01119180      -8.76689106
H       10.92130206      10.64247166       2.16297358       0.02566086      -0.13576103      -0.03912465      -0.00216774      -0.00760932      -0.00935222      -3.69625814
H        9.85000244      11.86502118       2.77626382      -0.03855847      -0.07926636       0.00430454      -0.00686254      -0.01423654      -0.00918025      -3.72984438
Pb       6.55184996       6.38761417       6.51358250      -3.52546377       1.01080052       0.11198249      -0.00200581      -0.00348764       0.00328536      -4.66653941
I        9.75676422       6.10016175       6.33222949      -1.80933144      -3.67633422       3.01659262      -0.00134617       0.00280086      -0.00193425      -1.96405815
I        6.83035891       9.66931396       6.56681182       3.71748504      -3.60703697       5.15989773       0.00556029      -0.00403325       0.00328568      -2.00148793
I        6.84576391       6.44722901       9.77895576      -0.61102591       1.28259124      -2.34104434      -0.00819825       0.00217813      -0.00024066      -1.94254371
C        9.78968317       9.75107844       9.55123395       1.03738429      -0.24762763       0.39382478       0.00048328       0.00028620       0.00086558      -8.88356896
H        9.08689731       9.83060362       8.71672814       0.38272090      -0.18826974       0.15502348       0.00765339      -0.00036634       0.01033665      -3.47085538
N        9.30999893       9.60840313      10.76952719       0.69284033       0.74798388       1.07430578       0.01620349      -0.00441651       0.01306652      -8.73177795
H        8.31122677       9.60789483      10.95979404       0.15724727       0.07446813       0.16108774       0.00657192      -0.00592595       0.00802875      -3.78349035
H        9.92553411       9.42805428      11.56108454      -0.22455473       0.33398035      -0.17450366       0.00667846       0.00423916       0.00236767      -3.65026922
N       11.08272511       9.80851408       9.30412129       2.20581404       0.80724986       0.39052603       0.01329089       0.00249584       0.01088370      -8.68014204
H       11.76122654       9.77034552      10.06326026      -0.24142153      -0.23149788       0.06332653       0.00442858       0.00349898      -0.00236885      -3.65648285
H       11.45492348       9.87278477       8.35601002      -0.13886460      -0.12406493      -0.17921029       0.00398225       0.00492027       0.00178412      -3.84867725
