96
Lattice="13.036720129786218 0.15850704405134308 0.0 0.1586462862701448 13.020468739875268 0.0 0.0 0.0 13.017959588757243" Properties=species:S:1:pos:R:3:momenta:R:3:forces:R:3:energies:R:1 md_step=27000 md_ps=27.0 epot_eV=-438.2741178779867 T_inst=465.3814298414428 src_md_ps=27.0 config_id=7 energy=-442.66977711627896 stress="0.0003276929841747876 0.00024872663359554734 -0.00019549612287018226 0.00024872663359554734 -0.0006979341934656574 -0.00035902403336072537 -0.00019549612287018226 -0.00035902403336072537 0.00011611743741369472" free_energy=-442.66977711627896 pbc="T T T"
Pb       0.28196090      12.92375102      -0.09553802      -2.85870686       0.32469176       3.85002499       0.00944828       0.02174928       0.00326363      -4.65017941
I        3.47747423      12.90191413      -0.02646330      -0.26182196       0.28233394       1.66386463       0.00668280       0.00832324       0.00032199      -1.93074106
I        0.35480973       3.19047486       0.39030746       0.59539494      -0.77132615       0.86815058       0.01824659       0.01747034       0.00505030      -1.95714035
I       13.30645090      -0.46005299       3.15700249       3.68841808       1.94316437      -0.06838393      -0.00713687       0.00176898       0.00274951      -1.95711736
C        3.69470496       3.19147062       3.13886150       0.79947364       0.74874130      -0.99059039       0.00739312       0.00073347       0.01607054      -8.95535591
H        4.67126219       3.17583242       3.62931243      -0.05504991      -0.20729341      -0.24313620       0.00488942       0.00766198       0.02018890      -3.44869160
N        3.13549981       2.04090646       2.82657721       0.49034079      -0.48317653       0.22392015       0.00757518       0.01381107       0.01595340      -8.73970381
H        3.62315314       1.16830334       2.99435674       0.13317352      -0.47491212      -0.10785114       0.00519958       0.00617010       0.02353652      -3.73249477
H        2.26912334       1.99991505       2.28785741      -0.20432398       0.55944055      -0.15648786       0.01593937       0.00830654       0.00052422      -3.70689660
N        3.13110603       4.35555232       2.89935344       0.44974169       0.20654341      -0.86906704       0.00782746       0.01372092       0.00999440      -8.73364971
H        2.22257217       4.42452115       2.43899684      -0.31179039       0.24003324      -0.13282270       0.00806339       0.00699695       0.01415732      -3.69185306
H        3.59885103       5.21733566       3.16442410       0.17216988       0.39691829       0.38124273       0.00805378       0.00562436       0.01237270      -3.76081160
Pb       0.34991380      12.67243098       6.42183842      -4.22117270      -1.52451924       3.14168802       0.00527761       0.00417756      -0.00362910      -4.66322359
I        3.66253162      13.08734095       6.33132491      -2.43173515      -3.42285582      -0.38339043      -0.01159008      -0.00062261      -0.01154937      -1.96588568
I       -0.20051880       2.90727226       6.19117387      -0.48803202       0.38482405      -0.95509410       0.00250396       0.00397423      -0.00160874      -2.00433589
I       13.37425994       0.19804091       9.68875587      -0.96651476      -0.39750562       1.67094474       0.00537030       0.00314465      -0.00441438      -1.98268395
C        2.95855871       3.58931900       9.86886933       0.71813533       0.26705579       0.55713362      -0.00638097      -0.01677229      -0.00394090      -8.86915226
H        2.01300622       4.00564412       9.50909322       0.21850532      -0.26242366       0.22865982      -0.01240761      -0.02612636       0.00497098      -3.47868729
N        3.30467927       2.38100107       9.48165638      -0.04245220      -1.42731800       1.12966312       0.00295522      -0.01365604      -0.01572073      -8.64858040
H        2.67652817       1.80483919       8.92841711      -0.43115954       0.05096618      -0.36964537       0.00264336      -0.01226645      -0.01391888      -3.77273604
H        4.22078703       1.97767631       9.70527304      -0.07552548       0.40321326      -0.08404275       0.00196897      -0.01231105      -0.01421124      -3.76267885
N        3.70233828       4.33876343      10.65335204       1.17278030       0.28141435       0.31835494      -0.00891489      -0.01368884      -0.00567876      -8.60280735
H        4.52167422       3.95972264      11.14187709      -0.05126987      -0.02637419      -0.13136243       0.00008344      -0.00355228      -0.01439170      -3.77035647
H        3.38393289       5.25425189      10.96857762       0.25885723      -0.00823890      -0.08152425      -0.01685581      -0.01671346      -0.00414372      -3.80674749
Pb      -0.01194632       6.44245959      -0.00395841       0.56425939       2.43642272      -0.74216972       0.01532955       0.02181334      -0.00648286      -4.64317506
I        3.35175594       7.11145181       0.02083454       2.37487968       0.85779282       3.35563909       0.01594635       0.02083328      -0.02650393      -1.99105312
I       -0.02473242       9.70160102      -0.54118963       1.54179532      -0.32661809      -1.35624533       0.00081842       0.01865889       0.00163465      -1.98899756
I       13.17438615       6.83917314       3.29034691       0.46778472      -1.44879552      -0.54036376       0.00036128       0.00602977      -0.01060862      -1.97303714
C        3.59508923      10.11157332       3.72287031      -0.34696672       0.26875624       0.37338642      -0.00997772      -0.02609256       0.00791678      -8.86887332
H        3.05398213      10.52043104       4.58018515      -0.32429771       0.02460118       0.14793239       0.00523812      -0.03050990       0.01127258      -3.47160121
N        3.20122435       8.95998042       3.22326698      -1.55641399      -0.15970100      -1.14389127      -0.01737839      -0.02056222      -0.00400675      -8.68199535
H        2.39069449       8.46841925       3.59388425      -0.19422280      -0.20774729       0.40241520      -0.02484427      -0.01191342      -0.00111104      -3.79017573
H        3.66513008       8.53148324       2.41969457      -0.19436738       0.08155278      -0.11011626      -0.04494776      -0.00931010      -0.01894614      -3.71175825
N        4.60542733      10.80059871       3.24146084       0.03438432      -0.69483014       0.63420248       0.00045290      -0.02807712      -0.00233931      -8.66157788
H        5.12193585      10.50406590       2.41186231      -0.13005500      -0.06580082       0.08281567      -0.01712390      -0.02159246      -0.00586916      -3.72185480
H        4.90830596      11.67005776       3.67745079       0.06580989      -0.17458137       0.06800237      -0.00461788      -0.02932284       0.00068204      -3.81083425
Pb       0.06757791       6.20011451       6.50593878      -2.76749547       0.67760048      -3.61522634      -0.00700965       0.00428209      -0.01115717      -4.66806396
I        3.29614782       6.01627418       6.50206771      -0.41817135       1.43483465       1.32368309       0.00729032       0.00002648      -0.00404345      -1.91319533
I        0.54950120       9.42885689       6.75754531       2.48127126       0.05368624      -1.11026869      -0.01413526      -0.00125963       0.00041268      -2.01214840
I       12.93837473       6.21674960       9.80454893      -0.22781441      -0.51323371       1.11936247       0.01228989       0.00815283      -0.00771477      -1.95019152
C        3.43707836       9.85533797       9.52939603       0.27561945       1.02214795      -0.35935555       0.00057137       0.00079949       0.00420031      -8.90164190
H        2.71465061      10.50180685       9.02420596      -0.17576602      -0.01227299      -0.06593398      -0.00104419       0.00386123       0.00492420      -3.45964548
N        3.43788303       8.56874330       9.24941993      -0.49512401      -0.03030470      -0.68037883      -0.00657613       0.00124697      -0.01198099      -8.67802872
H        2.81060277       8.18946602       8.54327634       0.12845414      -0.00622839      -0.10863446      -0.00397543       0.01162275      -0.01438657      -3.77965579
H        4.20408569       7.96660699       9.56543206      -0.06856774       0.05417409       0.16895686      -0.01011358      -0.00534795      -0.01134264      -3.74128635
N        4.26906001      10.40148606      10.39589127      -0.16283865      -0.01430148      -1.26955711      -0.00683668      -0.00628996       0.00323155      -8.71207516
H        4.83741091       9.82538175      11.01440508       0.37112749      -0.00772179       0.15197552       0.00970042      -0.00838142      -0.00584092      -3.65905911
H        4.23498498      11.39566931      10.60544803      -0.10240421      -0.46284118      -0.64367080      -0.00420801      -0.00681857       0.01082498      -3.79961435
Pb       6.72587481      13.31722846       0.03307573      -0.49064654       0.58780738      -1.43769224       0.01289009       0.00413967       0.00457846      -4.65414089
I        9.97151269      13.72781178      -0.26718624      -0.09994278      -1.66958934       0.90819632       0.01910182       0.01051676       0.00566883      -2.05882883
I        6.30556954       3.49144381      -0.00161809      -2.11060513       0.13178286      -3.04870937       0.00439429      -0.00206878      -0.00672723      -2.01913727
I        6.81103238       0.44892799       3.25725556      -0.76619477      -0.47861748      -1.54959621      -0.02838612       0.01056152       0.00149695      -1.96807018
C        9.84271637       3.06048394       3.50297027      -1.11709904       0.68719509      -1.42870328      -0.00500666       0.01868440       0.00034599      -8.92719149
H       10.05628593       3.64353058       4.40327788       0.23986704      -0.12970813      -0.14872708      -0.00229393       0.01081225       0.00755346      -3.44745705
N       10.43984310       1.89743938       3.35201151       0.03127703       0.50884293       1.69941838       0.00132366       0.01286520       0.00027323      -8.70024918
H       10.27504262       1.32242694       2.52440502       0.07256536       0.27867901      -0.04150377       0.00396170       0.02378265      -0.00926428      -3.69846140
H       11.10426124       1.55299936       4.04019349       0.35249513      -0.21538051       0.06677832      -0.00426120       0.01127799      -0.00473079      -3.78418814
N        9.00396091       3.56135881       2.61778066       0.75494426       0.44133840       1.02463269       0.00528425       0.01715838       0.00750276      -8.70298265
H        8.52959500       4.44650580       2.77713346       0.19883341       0.04697447       0.23523208      -0.00240086       0.01795080       0.00745278      -3.78657798
H        8.72241905       3.02792659       1.79570425      -0.19122070       0.33444699       0.32037325       0.00175469       0.02034853       0.00100244      -3.68829935
Pb       6.87660815      13.15454210       6.52904097       3.03979193       0.44093764       3.32557034      -0.00478443      -0.00298133       0.00547706      -4.65537422
I       10.17229762      12.52099436       6.53549380      -0.98638493       1.21946132      -1.06897184      -0.00919028       0.01156025       0.00841069      -1.94342481
I        6.74453773       3.31816630       6.51862577      -0.70188958       1.92976904      -1.30914443       0.04622665      -0.00485513       0.00858964      -1.89697023
I        6.40894098       0.45824463       9.78459573       1.48652011      -0.80945753      -1.47411730       0.00532005      -0.00998374       0.00683974      -2.00478341
C        9.66659063       3.50214819       9.26361251      -0.35408947       0.57834036       0.55755036       0.02334254      -0.00984444       0.00507484      -8.90300421
H        9.62737407       4.17427825       8.39965862       0.15011116       0.33664801       0.00394714       0.01180028       0.01235966       0.00943764      -3.47376570
N        8.81705593       3.70505069      10.24714385       1.81148789       0.71969000       0.31993526      -0.00250578       0.01034051       0.00715030      -8.66391573
H        8.14184498       4.46882087      10.20418462       0.20954032      -0.23848389      -0.14615104       0.00274065      -0.00403843       0.00308879      -3.83745940
H        8.75919105       3.06440316      11.03907035       0.15228550      -0.00130386      -0.36579290       0.00723836       0.00296090       0.00569704      -3.68552375
N       10.56262475       2.53848001       9.26398340       0.08185017       1.07116535      -0.00185495      -0.00873830       0.02268094       0.00208962      -8.69309086
H       10.65146034       1.89409624      10.04938599      -0.09576803      -0.20708339       0.06959629      -0.00876817      -0.01356168       0.00068575      -3.67247985
H       11.21416206       2.43503797       8.48748700       0.53337528       0.18621555      -0.16083035       0.00786231       0.00318624       0.00495839      -3.81659068
Pb       6.58960056       6.74657884       0.10370685      -1.25393993       0.55624264      -0.65077949       0.01156246      -0.00125141      -0.00309741      -4.65880588
I        9.84803997       6.64318149       0.23642370       2.19212202       2.02973602       0.13140598       0.01541880       0.01454775      -0.01580147      -1.91784342
I        6.95329189      10.01351886       0.23543020       1.18770738       2.08902431       0.72412615       0.01417207      -0.00224387      -0.00346353      -2.10867276
I        6.38266292       6.46314823       3.31698587      -0.45509522      -3.47799159       2.26376702       0.00180359       0.00344856      -0.00272405      -2.01222218
C       10.23251476       9.78393854       3.52612315      -0.49097351      -1.61548443       0.83693988      -0.01439139       0.00693156       0.00093082      -8.90190951
H       10.77174423       9.74937688       4.47615079      -0.39052458      -0.22879802      -0.07244480      -0.01683334       0.03072646       0.00612611      -3.45494872
N       10.92883068       9.92652843       2.41555104      -0.40930018      -1.22842088       1.24448067      -0.00827234      -0.00778463       0.00385906      -8.75353633
H       11.93722451      10.04299949       2.44014464       0.28795388       0.17393192      -0.27284505      -0.01328892       0.00626573       0.00357823      -3.77211131
H       10.51260227       9.75345353       1.50442100      -0.20383566      -0.08215970       0.19025573      -0.00464987      -0.02902350       0.00173778      -3.63041044
N        8.91962230       9.69041855       3.53870921      -0.85063722      -0.51831021       0.25676017      -0.01070272      -0.00480732       0.00007631      -8.67623499
H        8.37683127       9.77315443       2.67643031      -0.16815448       0.04763585       0.02825046      -0.01062179      -0.01902585      -0.00463739      -3.71791112
H        8.40472238       9.60979639       4.41663070       0.10940845       0.12664659       0.08195955      -0.01451501       0.00403936      -0.00227554      -3.83201196
Pb       6.58287281       6.51822077       6.55516667       1.62926539       0.66921011      -2.99498782      -0.00195799      -0.00791904      -0.00266434      -4.66747471
I        9.81538555       6.59288654       6.39198190      -1.56568723      -1.62931369      -1.32228736       0.00634125       0.01609185       0.00402598      -1.94699064
I        6.69645964       9.82156368       6.58601954       1.73982938      -0.14976351      -0.80382283      -0.00635064      -0.00072603       0.00049434      -1.98352884
I        6.67734390       6.80157074       9.85552998      -0.07067886      -2.28308931      -0.82185791      -0.00716217      -0.00967517      -0.00272458      -2.03013685
C        9.84600229      10.31788514      10.18660167      -0.39376195      -0.07310087      -0.21373783       0.01072756      -0.01364552      -0.00005248      -8.94125183
H       10.00144485      10.44943670      11.26061987       0.15149531      -0.16442186       0.34756890       0.00327256      -0.03085315       0.00292469      -3.45113941
N       10.88897179      10.01698060       9.43985196      -1.02763926       1.70593777      -0.04453893       0.00182302       0.00703516      -0.00079157      -8.73834138
H       11.80039819       9.90163397       9.87855122      -0.13425099      -0.10703544       0.05260632       0.00715017       0.00100590      -0.00922320      -3.76291617
H       10.86753721      10.12784902       8.42671815       0.40143970      -0.27698040       0.25054930       0.00129222       0.00509169      -0.00535552      -3.65158527
N        8.62552194      10.44677679       9.71205889      -0.24610785      -0.96152557      -0.65555909      -0.00276044      -0.00845448       0.00174909      -8.69971216
H        8.39515255      10.29176933       8.72692995       0.35585106      -0.23935196      -0.14532251       0.00529203      -0.00298945       0.00032963      -3.72910151
H        7.86203195      10.71765982      10.32427912      -0.03390540       0.01772445      -0.30273042       0.00369993      -0.03041095       0.00561461      -3.76696221
