96
Lattice="13.036720129786218 0.15850704405134308 0.0 0.1586462862701448 13.020468739875268 0.0 0.0 0.0 13.017959588757243" Properties=species:S:1:pos:R:3:momenta:R:3:forces:R:3:energies:R:1 md_step=24000 md_ps=24.0 epot_eV=-438.2088500506542 T_inst=349.1117766107632 src_md_ps=24.0 config_id=6 energy=-442.5695362561561 stress="-0.0003189928844968054 0.0006201422450946157 -0.0008550148716021396 0.0006201422450946157 -0.0004132902854308439 4.8787303381366916e-05 -0.0008550148716021396 4.8787303381366916e-05 -0.000745819363543281" free_energy=-442.5695362561561 pbc="T T T"
Pb       0.14824443      12.97118773      -0.01460351       1.08176801      -1.97628864       0.36702030      -0.02123676      -0.00879811       0.01182250      -4.65354873
I        3.40407733      13.23562786      -0.06089430       2.92476541       1.59687310       1.25953503      -0.01865405       0.01237856       0.01715333      -1.97935554
I       -0.19370672       3.28238551      -0.11076249      -0.05064548      -0.52740723      -0.09463108       0.00955034      -0.01212990      -0.00544077      -2.05775185
I       13.38767830       0.25227359       3.23024819      -0.58036511       3.69308563      -1.51948882      -0.01934137      -0.01559014       0.01676291      -2.05101110
C        3.42476961       3.52828160       2.88954501      -0.65316978      -0.33515903       0.62032781       0.02008260      -0.01169555       0.01644277      -8.89683689
H        3.93677103       4.40454019       3.29567518      -0.23772451       0.05784149      -0.06351803       0.02447756      -0.00965569       0.00862498      -3.45928651
N        2.68127670       3.67963542       1.81592482      -0.31298842      -0.16877255      -0.97160506       0.03359937      -0.01269575      -0.00084744      -8.59628566
H        2.59715446       4.58971250       1.35803806      -0.01609484       0.11082027       0.16226910       0.04656193      -0.01658531      -0.00660213      -3.87734503
H        2.23501768       2.88744594       1.35351780      -0.04811475       0.11748597       0.14250312       0.00921366      -0.00791687       0.02112469      -3.70371887
N        3.57463632       2.36940070       3.49799664      -0.72366573       1.41998086      -0.95558894       0.00065287       0.00113981       0.02564436      -8.72458047
H        3.03296060       1.55478175       3.21190293      -0.19637603       0.08437430      -0.08092215       0.00949894      -0.00614633       0.01720623      -3.65954919
H        4.22050689       2.27205684       4.27814827      -0.01802491      -0.42741085       0.05723640      -0.01934753       0.00381004       0.04585986      -3.80311692
Pb       0.22402079      13.00318470       6.49168604       2.73366088       2.31275144      -2.79021157      -0.00100118      -0.00356346       0.01600529      -4.65622828
I        3.41497926      12.71810856       6.72051416      -2.57636262       2.59595584      -1.54454909      -0.00038325      -0.01509434      -0.01797353      -1.93661527
I        0.43416508       3.26700297       6.61031331       0.78802578       0.51279801       2.08429030      -0.03019841      -0.00494162       0.00426075      -1.99219904
I       12.77336162      -0.19965657       9.75721776      -2.53647782       1.59504495      -0.75037690      -0.00249366      -0.00376020       0.01250948      -2.01311492
C        3.21955691       2.95864909       9.70303806       0.44957395      -0.29282994      -1.12025429       0.00810757       0.02077794      -0.02274236      -8.89933305
H        3.56146192       3.05809141       8.66876307       0.08591202      -0.03602485      -0.27743557      -0.00121805       0.03314045      -0.02170715      -3.44333560
N        1.93785177       2.76387354       9.92560829       0.34822549       0.57872282       0.71040983       0.00109322       0.01437752      -0.01603801      -8.63333709
H        1.29069372       2.69760476       9.13943666      -0.02389194      -0.15048047       0.14119619      -0.00105094       0.02840981      -0.01642497      -3.81897096
H        1.53971257       2.77973150      10.86915416       0.06586149       0.03636826      -0.20860750       0.01371082      -0.00846301      -0.01702995      -3.74928845
N        4.11367623       3.04913242      10.66999616      -1.15334040      -0.60753554       0.26142358      -0.00121329       0.00576598      -0.02329505      -8.69422859
H        3.93419742       2.64118604      11.58872245      -0.02036280       0.07530226       0.16110716      -0.00078313       0.01640002      -0.02218448      -3.71690482
H        5.08136917       3.27529887      10.46523862      -0.10350255       0.08106736      -0.18254777       0.00872078       0.00591526      -0.02122902      -3.75322045
Pb      -0.08168684       6.60325027      -0.02134420       0.35123653       1.66037516      -2.64266359       0.00279110      -0.01451307      -0.00149781      -4.65733539
I        3.20833921       6.65421077      -0.19814561       1.49537135       2.36409379       0.23550492      -0.00910363       0.01082617       0.02859248      -1.95935562
I       -0.07791878       9.80400777       0.36795361      -0.02094507      -1.16845563       3.01536038      -0.02540213      -0.01887007       0.01227446      -2.00155088
I       13.09692614       6.40211122       3.28005816      -1.21283555       3.85165636      -0.58811054      -0.00488670      -0.00905410      -0.00595368      -1.96168239
C        3.72857729       9.61802184       3.03330251      -0.75782308       0.20924043       0.85073785      -0.00713336       0.00447961      -0.00155655      -8.87653402
H        4.58437884       9.08098611       2.61382146       0.11996441      -0.07081186      -0.07867000      -0.00244345       0.00993129      -0.00162450      -3.47456780
N        3.86209611      10.89860543       3.31259839      -0.95991475      -0.66516096       0.58576896      -0.01120804       0.00575240       0.00036503      -8.66928555
H        4.74692383      11.39072317       3.17498062      -0.17681183      -0.03348585       0.18751298      -0.01808863       0.00916913       0.01583259      -3.85527943
H        3.06593306      11.45783982       3.61764375      -0.01119589      -0.00844035      -0.08827848      -0.01318738      -0.00671332       0.02919570      -3.67904217
N        2.60701512       8.95708336       3.23272850       0.28245120       0.40108223      -0.60560615      -0.00229040      -0.00481127      -0.01258959      -8.73947572
H        1.83799777       9.35941043       3.77119223       0.07403028      -0.26297947       0.02667278      -0.00200102      -0.01018009       0.00278038      -3.69461155
H        2.51223634       7.98164986       2.96839876      -0.42638741      -0.09135031       0.08420432       0.00286634      -0.00068396      -0.00549795      -3.74194002
Pb       0.13024614       6.51879620       6.50602208      -0.00338832      -1.63440989      -0.75555541      -0.01485893       0.00339479      -0.00463532      -4.65347090
I        3.39358619       6.95271646       6.63883941       4.66578707      -3.72176231      -0.34075103      -0.00962026      -0.01495547       0.00883931      -1.92419821
I        0.12239285       9.79939749       6.12101803       0.61826981      -2.11109238       2.98019910      -0.00661026      -0.00699658       0.00270775      -1.97318956
I       12.81578238       7.08286941       9.78337102       0.15682524      -1.85286589      -2.88490198      -0.00850275      -0.00873524      -0.00519960      -1.97365125
C        3.55710607       9.70293183      10.07670737       0.16118006       0.03399830       0.31405790      -0.00711184       0.01142314      -0.00256012      -8.92260892
H        3.55593018       9.83989456      11.16101258       0.07623688       0.43711436       0.00446288      -0.01448203       0.01792310      -0.00366665      -3.45003150
N        4.60319716       9.13097725       9.52011656       0.59564054      -1.03422901       1.09713400      -0.00457322       0.01520477       0.00463110      -8.69696958
H        5.38460083       8.81302423      10.08711303      -0.07128092      -0.02001258      -0.18790029      -0.00153387       0.02450225       0.01160684      -3.78137885
H        4.59111658       8.84681673       8.53891132       0.12587357      -0.10981300       0.02658215       0.00504905       0.00930460       0.00756867      -3.71279892
N        2.51279431      10.11617715       9.38623941      -0.35323045      -0.22753906       0.10166128      -0.00965862       0.00101027      -0.00915895      -8.69289419
H        2.50871307      10.08934056       8.36796506       0.20344656      -0.21824803       0.01801714      -0.01212237      -0.01894594      -0.00900216      -3.65084406
H        1.74143572      10.61468004       9.82620911       0.18119865      -0.03715124       0.10552331      -0.01454538      -0.00461993      -0.01583353      -3.80811511
Pb       6.69212683      12.98405866      -0.02045161      -3.71288440       0.46039791       0.91852086      -0.01355904       0.01268202      -0.00018594      -4.66662424
I        9.95625020      13.12378090       0.32954162      -2.83036611      -0.32580650       1.74222681      -0.01081494       0.02498413      -0.00163325      -1.97187345
I        6.74167611       3.16486359       0.04618396      -1.82962524      -2.02032524      -2.34393018      -0.01804145       0.01377706       0.00412940      -1.91828168
I        6.62526551       0.12467844       3.25538079      -0.01089363      -0.91296922       2.31277446      -0.00167791      -0.00993925       0.00076237      -1.97657784
C        9.86466907       3.90276755       3.44475503       0.14110473       0.05279207       1.17412428       0.03491604      -0.00875625      -0.00021336      -8.91035416
H        9.86048689       4.91750272       3.85251855      -0.20755258      -0.23757261       0.04530939       0.00748875      -0.00785396      -0.01738711      -3.47823930
N       10.99843692       3.23478131       3.45785443      -0.21203876      -0.14645947      -0.37569187      -0.01600848      -0.00167417      -0.01226430      -8.76361648
H       11.07945641       2.30038343       3.06380614      -0.07041730      -0.13852645       0.25144976       0.00194052      -0.02197156       0.01280955      -3.63095604
H       11.84450087       3.66391177       3.82392949      -0.29394916       0.04503329      -0.10125649       0.01241706      -0.00679176      -0.00819989      -3.77351211
N        8.73335511       3.41046032       2.99097125      -0.42336612      -0.67933218      -0.81441989      -0.01589724      -0.02612226      -0.01062027      -8.72581849
H        8.67111942       2.49053921       2.55791356      -0.16075029      -0.10628901       0.23831219       0.00265999      -0.00984962       0.01321506      -3.65622913
H        7.89454819       3.98729290       2.97608341       0.08825014       0.00394800       0.01098083       0.00579046      -0.01528963       0.00345794      -3.80526241
Pb       6.62665080      13.01148072       6.54979585       0.61072793       0.72985210       3.59329022      -0.00510386      -0.00037149       0.00258687      -4.66004938
I        9.93397897      13.38392522       6.63293232       0.81356885      -1.34384050      -1.78135470      -0.00117856       0.00517506      -0.00374183      -2.01907464
I        5.97608811       3.22822418       6.38640613      -0.60167375      -0.60306820       1.72624054      -0.00163974       0.00034781       0.00048897      -2.01119233
I        6.67590644       0.06760331       9.77519255      -0.40364582       2.99820931       2.72716638      -0.00916909      -0.00023615      -0.00088942      -1.94447353
C        9.65965779       3.49632833       9.84945013      -0.98816297      -0.78914375       0.42887268      -0.01004581       0.00147177      -0.00525938      -8.92330195
H        9.51955043       4.44170466      10.38326337      -0.02947683      -0.11302295      -0.02821379      -0.01103861      -0.00494847       0.00446164      -3.44136137
N        8.79154799       3.15954364       8.92331429      -0.95237075      -1.20023504      -0.44313774      -0.01395186       0.01757034      -0.00034631      -8.62237892
H        7.98775156       3.75268358       8.72713688       0.10526357       0.11159895      -0.06117230       0.00101544      -0.00652853       0.00161556      -3.81314688
H        8.90044923       2.30353769       8.37182541      -0.23335330      -0.00000845       0.40344943       0.00760420       0.00587352      -0.02051114      -3.74900423
N       10.70284211       2.75879803      10.16222346      -0.22487193      -0.82159399      -0.55672241       0.00508093       0.00866766       0.00172410      -8.54518938
H       10.88193927       1.85226452       9.72612774       0.07686705       0.05496679      -0.02604152       0.00123079       0.00584260      -0.01169072      -3.70544309
H       11.31333667       3.02205085      10.94115824       0.10826458      -0.12326774       0.12066734      -0.00319310       0.00499531      -0.01304530      -3.90864878
Pb       6.50133794       6.38150393      -0.07669557       2.80696742       0.77406203      -1.03016485      -0.00904671       0.01145453      -0.01235123      -4.65671309
I        9.74026921       6.66479813      -0.08818057      -2.41957604      -2.18089222       1.84884390      -0.01095217      -0.02681213      -0.01206909      -1.93448347
I        6.32945200       9.67502440      -0.18100617       2.85778398      -1.23731404      -3.61869431       0.01535696       0.01670171      -0.00092136      -2.01255270
I        6.40475631       6.44718823       3.21311718       2.99985567       0.89629227      -1.64563372       0.00972635       0.01046174      -0.00741135      -2.03103879
C        9.12068141      10.20524410       3.12995727      -1.15950017      -0.74203895      -0.34956411       0.03091323       0.01009526       0.01510598      -8.86819342
H        8.14652512      10.01038592       3.58544402      -0.00938066      -0.10512623       0.29866328       0.02517339       0.00703352      -0.00697078      -3.48080636
N        9.35440951       9.75135572       1.91705575      -0.60807254      -0.84793871      -0.12423583       0.02155821      -0.00965908      -0.01917702      -8.65473088
H        8.61860975       9.30985378       1.36610981      -0.01385969       0.09115738       0.30315721       0.02628810       0.00120207       0.00745709      -3.83369079
H       10.23936788       9.93979813       1.44397954       0.07649575      -0.05374386       0.26526037       0.03151622      -0.02604431       0.00353711      -3.70686825
N       10.02485702      10.85637756       3.83296564      -0.23135705      -1.10951390       0.18277705       0.01593595      -0.00811556      -0.00787164      -8.73386436
H       10.91420672      11.12026060       3.41497901       0.05888735       0.24418300      -0.04834288       0.03285715      -0.00260455       0.01248691      -3.60590231
H        9.80805228      11.26408843       4.74109642       0.24193351       0.29749576       0.01976305       0.01377844      -0.00138333       0.00366500      -3.80578167
Pb       6.59116396       6.46080145       6.45656763       4.55537181       4.40926982      -0.34263168      -0.01329713      -0.00101626      -0.00492274      -4.64678344
I        9.89548639       6.29993160       6.53607655      -0.89830236      -3.00054077      -4.10800883      -0.00492581       0.02408938      -0.02793863      -1.91490011
I        6.94190103       9.74108437       6.47968762      -1.52415050       2.05428820       2.15637199      -0.00458510      -0.00024961       0.00077916      -2.00255506
I        6.63723759       6.05134917       9.72010932       0.44433579       0.34191072       1.02995857      -0.00159417       0.01092200      -0.01134149      -2.00639086
C        9.66553996      10.16893019       9.58777425       0.04528992       0.06291801      -1.73917914       0.00192855      -0.00915965       0.00248802      -8.89184667
H        8.99363019      10.98496511       9.30574815      -0.08580069      -0.31003940       0.17488798      -0.00780022      -0.00227095       0.01265695      -3.47689984
N       10.13391650      10.15231334      10.81952754       0.68924344      -0.27681545       0.06225502       0.00771150       0.00487512       0.00464081      -8.70705202
H        9.96092704      10.92363510      11.46156808      -0.00408433      -0.15643719       0.02796172       0.00382255      -0.00203524       0.00794689      -3.80928835
H       10.74225162       9.40191796      11.14421543      -0.16400198       0.22916743      -0.03609098       0.01972043       0.00786747       0.00003208      -3.66473963
N        9.95594176       9.25504483       8.69026322      -0.51420531      -0.37340458       0.45131959      -0.00729317       0.00664358       0.01938021      -8.65569670
H       10.65899345       8.53107545       8.86909432       0.14830445       0.02910172      -0.21732031      -0.00971880      -0.00643520       0.00733831      -3.74954331
H        9.50968660       9.26346913       7.77637577      -0.39120986       0.03230567       0.40865814      -0.01558848      -0.00553629       0.00667736      -3.77862951
