96
Lattice="13.036720129786218 0.15850704405134308 0.0 0.1586462862701448 13.020468739875268 0.0 0.0 0.0 13.017959588757243" Properties=species:S:1:pos:R:3:momenta:R:3:forces:R:3:energies:R:1 md_step=12000 md_ps=12.0 epot_eV=-438.7571627329898 T_inst=351.2618241678711 src_md_ps=12.0 config_id=2 energy=-442.7658565645983 stress="0.00016403595145430405 0.0004084020549966825 0.0004862775633256531 0.0004084020549966825 -0.0004338099538509694 0.00026956048641238976 0.0004862775633256531 0.00026956048641238976 0.00037982467615063213" free_energy=-442.7658565645983 pbc="T T T"
Pb       0.14247467      12.98302073       0.02957068      -0.97449574      -0.20614139      -0.44719643      -0.00176031       0.00366761       0.00614286      -4.65470857
I        3.36831729      12.86564118      -0.51643461       5.33585733      -1.39275627      -2.47798916       0.00023983      -0.00982882      -0.00101547      -1.97276827
I        0.06268364       3.24619698       0.36624791      -0.87486293      -2.49330529       1.33118942       0.00662566       0.00348256       0.00314498      -1.97814562
I       13.55889233       0.13915714       3.29045835       1.93639440      -1.50359461      -2.16978965      -0.00903891       0.00290668       0.00309203      -1.97906162
C        4.03720672       2.82957602       3.30429091       0.39513438      -0.08029039      -0.46408447      -0.00833020       0.01718313      -0.00623090      -8.91254705
H        5.12421498       2.93415272       3.34186135       0.03450236       0.14208987       0.08595158      -0.00837831       0.01819993      -0.00830935      -3.45540653
N        3.42347874       3.07503303       2.16618797       0.66377228       0.53696519       0.45379726      -0.00797209       0.00773290      -0.01068825      -8.72906347
H        3.95798302       3.34730799       1.34468481      -0.16873102       0.22906657       0.38064886      -0.00620128      -0.00427199      -0.01331131      -3.79246191
H        2.41455740       2.96676944       2.04985712       0.31273404      -0.02246277      -0.35282839      -0.00630249       0.00106199      -0.01312032      -3.67815639
N        3.40878611       2.48012493       4.40591139       0.70743358      -0.96865209       0.81228828      -0.00784095       0.02697295      -0.00512615      -8.69048346
H        2.40577563       2.29325422       4.42100454      -0.12803406       0.11067581      -0.13232964      -0.00599485       0.01636039      -0.00379472      -3.70021786
H        3.92821433       2.27533873       5.25568090      -0.12180594      -0.19997862       0.00743482      -0.00667088       0.03251428      -0.00266962      -3.78985825
Pb       0.13691887      13.04967965       6.50263651      -0.89126448      -2.47436878       1.60305845      -0.01084892      -0.01082291      -0.00111247      -4.63960707
I        3.42080443      12.88156208       6.97900590      -1.59888889       0.25397626      -2.71757491      -0.00758869       0.00027063      -0.00360151      -2.01046004
I        0.04265874       3.26886958       6.10614433       0.46077519      -1.98722051      -1.08022777       0.00166041      -0.00614507       0.00945653      -1.97305559
I       12.47729661       0.61003246       9.80644431      -2.85406161       0.28029732       2.44639759      -0.00285565      -0.00489569       0.00529733      -2.04881110
C        3.09740192       3.10418495      10.00999026      -0.99223358       0.24281264      -0.03169462       0.00413780      -0.00193576       0.00092924      -8.88710669
H        3.08419443       2.61365546      10.98696892       0.02170199      -0.11051058      -0.19131121       0.00664500      -0.00717311       0.00368347      -3.47199190
N        1.97819658       3.15042662       9.31814188      -0.61641772       0.52137036      -0.21199784       0.00771978      -0.00321165       0.00853811      -8.70197396
H        1.14865229       2.64800556       9.63077450      -0.00239552      -0.04989768       0.06789143      -0.00007633       0.01007597       0.01085202      -3.81796425
H        1.86721712       3.75188094       8.50370067       0.18421712       0.05017230      -0.00206304       0.01981478      -0.03786703      -0.02256322      -3.65882967
N        4.23501660       3.61022005       9.57720951      -0.92318985       0.21278709       0.47579234       0.00523242      -0.00132897       0.00735668      -8.76335266
H        4.34484452       3.93246050       8.61774523      -0.17374267      -0.07368283       0.12958104      -0.00454727       0.03045523       0.01255824      -3.63666367
H        5.05411033       3.63280275      10.17876856      -0.11269835      -0.00849671      -0.04786393       0.00480857      -0.00821975       0.00413820      -3.77368961
Pb      -0.02288039       6.47975160      -0.04893709      -3.48512530       3.28660867       2.04076751       0.01216948      -0.00055201       0.00326212      -4.66142006
I        3.22231576       6.32422032      -0.03707882      -0.14736786      -0.25660942      -1.22543725       0.01554915       0.00816646      -0.00711446      -2.00127700
I        0.00723228       9.77247943      -0.25618471      -0.63628902      -0.74524079      -2.32120433      -0.00084236       0.00145814       0.00483762      -1.89924119
I       12.91971029       7.21910548       3.22082199       1.77439513      -2.13566955       0.16575891       0.01904459       0.00239714       0.01149298      -2.04796047
C        3.48787554      10.07831555       3.18860534       0.15180036       0.43154242       1.28555837      -0.00347361       0.00822018       0.01523596      -8.88197205
H        3.85602376      11.08219405       2.96300130       0.14728673      -0.01096021      -0.21500847      -0.00484829       0.00192474       0.01062730      -3.46801463
N        2.96218734       9.85511734       4.37575056       0.78720996       0.01789039      -0.54828273       0.00238703      -0.00167493       0.01464955      -8.73440299
H        2.86886767      10.60877293       5.05257752      -0.12644294      -0.15995656       0.03152553       0.00694644       0.00351424       0.01900807      -3.79388376
H        2.75914711       8.90983187       4.70143149      -0.15449202       0.14414168       0.23006289      -0.01701537       0.00641713       0.00988657      -3.68557865
N        3.58016612       9.15925973       2.25253897      -0.10170054      -0.04115559      -0.75073437      -0.01089628      -0.00317354       0.01064876      -8.68611804
H        3.15739218       8.23905813       2.35185345       0.15179951       0.03876251       0.01455791      -0.00613889       0.00612539       0.01571988      -3.63815172
H        4.13532782       9.32836826       1.41414435      -0.53843356       0.36872281      -0.12785297      -0.01842124       0.00529515       0.00539564      -3.84426805
Pb       0.04345989       6.52188359       6.48090983      -1.82148022      -1.46277182      -1.99014955      -0.00402127      -0.00485311       0.01874016      -4.66834779
I        3.30470448       6.50292866       6.44415344       0.18143810       2.65653804      -1.60293595      -0.00660494      -0.01727980       0.02687977      -1.99254744
I        0.13184893       9.78564393       6.80243379      -0.03406617       3.13077721      -0.74013783      -0.00923074      -0.00943017      -0.00128153      -1.98554657
I       13.08113137       6.42739857       9.71935991       2.35276289      -0.24370287       1.61908599      -0.01914389      -0.00733425       0.01237935      -1.93541493
C        3.56907279       9.01182521       9.72287538       0.42221693      -0.18029088      -0.48305330      -0.00644622      -0.01118710       0.00108075      -8.89489491
H        4.06932855       8.03948180       9.71802242      -0.18321481       0.12430733       0.01674182      -0.03154522      -0.02124436      -0.00284439      -3.47989805
N        3.57850023       9.71598006       8.61394435      -1.09854361      -0.04989219      -0.11325895       0.01318336      -0.00429479       0.00309083      -8.69034529
H        4.04016982       9.35887347       7.78140426       0.00923363      -0.18381752      -0.03064051       0.01304387      -0.00758177       0.00606796      -3.78781661
H        3.15155770      10.64021450       8.53454013      -0.40992598       0.19925823      -0.03510164       0.02888381       0.00225778       0.00685511      -3.68949337
N        3.00644333       9.41395872      10.84018026      -0.69044105       0.25870642      -0.02064386      -0.00219482      -0.00166526       0.00242876      -8.70156428
H        2.56406792      10.32491569      10.94187562      -0.19747668       0.12799595       0.18507749       0.03104080       0.01111710       0.00900962      -3.64425995
H        2.98299655       8.79399528      11.64773140       0.04154925       0.14879667       0.07714527      -0.01681688      -0.00483048      -0.00118173      -3.81564547
Pb       6.65979917      12.91805913       0.00246024       1.26122062      -3.19816302      -1.59262365      -0.00407212      -0.00313831      -0.00571732      -4.65082020
I        9.90357923      13.09537958       0.53221376      -0.61118178      -1.92377940       1.26732499      -0.00434444       0.00146741       0.00195608      -1.96976266
I        6.45199803       3.17628941      -0.22159122       1.10444214       0.59475803       3.81217759       0.00335687       0.00359025      -0.00099527      -2.04583207
I        6.28775611      -0.21581791       3.25990897      -0.13924371      -0.31541673       0.88203024      -0.00590247       0.00614531      -0.00164727      -1.96854449
C        9.72756018       3.39064475       2.89993178      -0.37290550       0.35891371      -0.61571930       0.00286752       0.00278775      -0.01226330      -8.92746796
H        9.99955253       3.27284527       1.84794786      -0.23274306      -0.13230720      -0.10455329       0.01060676      -0.00790612      -0.00626266      -3.45026979
N        9.12756557       2.38770007       3.50513212      -0.83658523       0.20523388       0.34332514      -0.00685886       0.00514937      -0.00487987      -8.70988494
H        8.76346560       2.46524213       4.45427525       0.04382839      -0.26730465       0.15725673       0.01253250       0.00418500      -0.00148637      -3.69109230
H        8.94767598       1.51876772       3.00718254       0.10032679       0.30620862       0.38414142       0.00063152       0.00319027      -0.00127586      -3.79618398
N       10.02481918       4.52494094       3.49776060       0.60769215       0.18311792       0.17439260      -0.00279688       0.00706516      -0.01740931      -8.69755708
H        9.86081390       4.68628676       4.49393405       0.01571560      -0.07219820      -0.38005836      -0.00362370       0.01559176      -0.02058053      -3.71303845
H       10.45655090       5.28513131       2.97898549      -0.21848186       0.09388105      -0.03752060       0.01876741      -0.00450978      -0.01822067      -3.77901384
Pb       6.76026296      12.86844072       6.58269906      -3.29223132       1.52981440      -2.47799783      -0.00776066      -0.01115148      -0.00470365      -4.65753925
I        9.96531776      12.99450070       6.19894017       6.91476256      -3.26625159      -0.14984026      -0.01171183       0.00048330      -0.00415049      -1.93917151
I        6.61274234       3.16854025       6.51145706      -0.47110783      -1.29328283      -0.17980212      -0.00100458      -0.01244296      -0.00086302      -2.04013233
I        7.13907706      -0.42539557       9.78543667       1.43341919      -1.92516601       1.82625637      -0.00632856       0.00078227       0.00309919      -2.00008208
C        9.32656369       3.52610365       9.68304180       1.01500110       0.73531927       0.00129457       0.01088717      -0.00124989       0.00306690      -8.92333646
H        8.41464739       4.12997520       9.66760988      -0.22144181       0.24127043       0.01294729       0.01482211       0.00691015       0.00382682      -3.48980327
N        9.82163814       3.17401476      10.84988763      -0.47078917       0.15435321       0.60031936       0.00587491      -0.00365770       0.00593712      -8.74067082
H        9.35708905       3.44369465      11.71188718      -0.06681890       0.14283008      -0.32320832       0.00549608      -0.00538924       0.00418048      -3.74454617
H       10.65148622       2.58261278      10.91086496       0.27659238      -0.13909162      -0.07493607       0.00164531      -0.01232540       0.00538111      -3.68888101
N        9.87913027       3.20293486       8.53418482      -0.05162372      -0.57297751       0.14545865       0.00593187      -0.00478898       0.00639268      -8.72985059
H       10.72000334       2.62746077       8.49358726       0.19457216      -0.06424052      -0.24308824       0.00022092      -0.01580411       0.00561943      -3.68910162
H        9.46257254       3.50385500       7.65821478      -0.07463939      -0.02366015       0.10140170       0.00965289      -0.00116682       0.00378204      -3.75574433
Pb       6.49704959       6.43637797       0.05099550      -2.09904167      -0.04670879      -2.37788051       0.01142243       0.00838813      -0.01403896      -4.66627983
I        9.75451691       6.40200676       0.14509373      -2.75903498       0.55324891       2.11106028       0.01272742       0.00858622       0.00158918      -2.01195307
I        6.48686816       9.69891657       0.10807957       2.17370256      -0.06271654       1.69281552       0.00937657       0.00102795       0.01314879      -1.98175817
I        6.44288803       6.37861172       3.27390163       0.76967482       3.60813760       2.05301989      -0.00767507      -0.01375825      -0.00421263      -1.91778970
C        9.77042675      10.15889572       3.37774054       0.09783841       0.13769871       1.27566714      -0.00220438      -0.00378742      -0.00106839      -8.90235240
H        9.00143023      10.93681776       3.36031690      -0.17236786       0.28279950      -0.12640892      -0.00159365      -0.00460396      -0.00452027      -3.47810858
N        9.39858317       8.91414531       3.59711257      -0.46490770      -0.57689211      -0.25772356      -0.00279648      -0.00561397       0.00283296      -8.72653734
H        8.42844186       8.66849632       3.77493637      -0.02979589       0.37339788      -0.40287314      -0.00040450      -0.00617272      -0.00077778      -3.77871763
H       10.09734759       8.17862660       3.69612413       0.08312093       0.13496952       0.03999387      -0.00278079      -0.00801500      -0.00891018      -3.67599968
N       11.02374999      10.50302804       3.17645814      -1.38258993       1.05623066      -0.40027686      -0.00104929      -0.00306867       0.00043766      -8.70255994
H       11.76134154       9.79599417       3.14556458       0.22006514       0.07776252      -0.26077332      -0.00080686      -0.00468609      -0.00217921      -3.70856903
H       11.29303491      11.47011052       3.01311875      -0.12443850       0.01027718       0.21263141      -0.00337721      -0.00596558      -0.00800208      -3.77671946
Pb       6.58437577       6.47844978       6.51107790      -2.82739101       5.59395710       0.67541198      -0.01253074      -0.00929319       0.00166841      -4.67684970
I        9.83206093       6.50074663       6.60363534       4.11804929      -0.89238995      -2.30253965      -0.00946243      -0.01886386      -0.01224606      -1.97419244
I        6.69896445       9.68146788       6.31692076      -0.24220529      -1.85052204       2.91819075       0.00225373      -0.01078433      -0.00447944      -1.94990931
I        6.66508958       6.57179722       9.78652634       1.22817585       4.28590626      -3.25182959       0.01200281       0.00288887      -0.00672056      -1.96219167
C       10.20490837       9.37860397      10.05596298       0.30329520      -0.10494710       0.64471745       0.00150953       0.00879104      -0.01305880      -8.90032470
H       10.94140190       8.57149114      10.13761405      -0.00415736       0.20096621       0.01267380       0.00529374       0.01295715      -0.01913845      -3.47965288
N       10.25287724      10.15540533       8.99664465      -0.44612862      -0.51249890       1.15752582      -0.00684491       0.01607636      -0.00877709      -8.63023470
H       10.98968172      10.04268695       8.29592980       0.01351317      -0.06265414      -0.07302541      -0.00638776       0.02394478      -0.01043149      -3.86179491
H        9.61022478      10.94213889       8.89304634      -0.19782874      -0.02650364       0.05942177      -0.00747166       0.01554079      -0.00214989      -3.67952339
N        9.32663187       9.52193397      11.02275925      -0.11672752       0.13409854       0.04090553       0.00176105      -0.00307243      -0.00943529      -8.65601798
H        8.58480213      10.22161453      10.96282772      -0.14503861      -0.11138175      -0.08542276       0.00135145      -0.00523683      -0.00025271      -3.70980404
H        9.30913360       8.87939170      11.81242610       0.08204548      -0.02693263       0.18681994       0.01171165      -0.00607160      -0.01058497      -3.81524035
