96
Lattice="13.036720129786218 0.15850704405134308 0.0 0.1586462862701448 13.020468739875268 0.0 0.0 0.0 13.017959588757243" Properties=species:S:1:pos:R:3:momenta:R:3:forces:R:3:energies:R:1 md_step=6000 md_ps=6.0 epot_eV=-438.51908471226335 T_inst=380.51080227025193 src_md_ps=6.0 config_id=0 energy=-442.59961351690504 stress="9.619424565586767e-05 0.0002579164963255162 0.0003913518228174918 0.0002579164963255162 -0.0008175459122604721 1.392647823830411e-05 0.0003913518228174918 1.392647823830411e-05 -0.0005191106431634842" free_energy=-442.59961351690504 pbc="T T T"
Pb       0.17422032      12.97367823       0.10886805      -0.75293413       2.32957762       3.63738014      -0.01573920       0.03119342       0.00712202      -4.67516589
I        3.53594965      13.04052184       0.22471769      -1.64137779      -2.74499945      -1.19124904      -0.01180444      -0.00958490       0.00449179      -2.04937136
I       -0.00084869       3.19511063       0.20557875       3.84440105      -1.42217749       0.28974610      -0.00736836       0.01163631      -0.01471523      -1.91776653
I       12.84550165       0.05139701       3.35246872      -1.91366275       0.70811971      -1.42941207      -0.00472426       0.02556056       0.00800274      -1.92907058
C        2.94884843       2.96213637       2.92543052      -0.45357519      -1.57642374       0.07691299       0.02354672       0.00104422      -0.00605222      -8.89640389
H        2.99933330       2.01913273       2.37568238      -0.04129927       0.01822937      -0.16134400       0.01419944       0.01289703      -0.01772964      -3.49252847
N        1.82900328       3.25432898       3.55188964       0.91914802       0.13093632       0.08664075       0.02110054       0.00353690       0.00887660      -8.71587849
H        1.04579010       2.60473652       3.53636985       0.02572630       0.31681484      -0.25967360       0.01960821       0.00689658      -0.00638823      -3.78790740
H        1.74886819       4.08450585       4.13734399       0.01527155      -0.16797536       0.18562066       0.02542114       0.00111919       0.00064534      -3.67689124
N        4.00637755       3.74466190       2.92181677       1.12172749       2.03465959       0.45264938       0.02264296       0.00061247       0.00767720      -8.73165595
H        4.01076337       4.63539491       3.42158542       0.03064746       0.08745398      -0.12722508       0.02191413      -0.00146498       0.00326447      -3.68504870
H        4.82312129       3.51469757       2.36192009      -0.10635020      -0.11519924       0.16451077       0.01793618       0.00535571      -0.00819280      -3.76349065
Pb       0.11889169      13.03993370       6.59052925       2.48998025      -2.39616737       2.66566162      -0.00837676       0.00777547      -0.00373813      -4.66837928
I        3.37769406      13.32987870       6.35718819       1.83081814      -1.08604548       0.25236706      -0.00828064       0.00376917       0.01198588      -1.94462314
I       -0.19355693       3.36288747       6.41412097       0.12868957       0.86687638       3.21258121      -0.00539209       0.00649036      -0.00448586      -2.06656059
I       13.13364828       0.35816663       9.85544663      -0.54741781      -1.75718924       0.41206564      -0.01129721      -0.01134662      -0.00474715      -1.97421734
C        2.35722735       3.75011214       9.67323858       0.31345107      -0.35757091       0.63661954       0.01122184      -0.02493630       0.00767195      -8.84953164
H        1.56905865       3.04215124       9.40411167      -0.07556075       0.04234377       0.03469130      -0.00539874      -0.00491680      -0.00036493      -3.47411340
N        2.75737096       3.78740994      10.92928238      -0.04104264      -0.22392096      -0.64768160       0.01588342      -0.03251661      -0.01246988      -8.63611444
H        2.24692700       3.26593045      11.64219317      -0.10624102      -0.12700460       0.18306831      -0.00297378      -0.00764842      -0.00504663      -3.81235732
H        3.34397830       4.55043783      11.27519202      -0.33039096       0.30467934      -0.24560158       0.02615520      -0.03084401      -0.00660317      -3.71143737
N        2.88880018       4.49774490       8.73085152      -1.20783238       0.58811156       0.53218436       0.02171995      -0.03418568      -0.02735281      -8.68455643
H        3.67137556       5.12885420       8.92792974      -0.26412687       0.10390708       0.25151757       0.02786733      -0.03828333      -0.01219278      -3.73572958
H        2.54298544       4.47075902       7.77600402       0.12021121       0.19049436       0.12389879       0.01707296      -0.03408045       0.00058978      -3.76931707
Pb       0.04251586       6.48848405      -0.01022304       5.66264439       0.01092041      -2.08520419      -0.00602585       0.01312006       0.00825601      -4.64969187
I        3.33253806       6.45724373       0.24725515       3.96279579       1.76508778      -2.13029828      -0.01130170       0.00550291      -0.03505567      -2.03656989
I       -0.04781762       9.71084370      -0.18232546      -3.79608934       0.15256494       0.24739080      -0.03693345       0.03111446       0.01061161      -1.93865678
I       12.82567579       7.14547193       3.23055507       0.32160145      -1.23052845      -0.08722194       0.00069775       0.00759522      -0.00721706      -1.99454417
C        3.27409014       9.79925190       2.82450586      -0.68297645       0.42505999       0.60855557      -0.00028868       0.00643627       0.01815573      -8.93928272
H        2.97016216       8.88676195       3.34705582       0.18133000       0.30311675       0.29012111       0.01313516      -0.00303078       0.02535989      -3.45060102
N        3.60843088       9.72073033       1.55648016       0.36406395       0.44012175       1.80209303      -0.01527821      -0.00577442       0.01517204      -8.51657229
H        3.57153442       8.82282129       1.06275192      -0.14831774       0.23518449      -0.09828890      -0.00631746      -0.00858774       0.01997342      -3.88317363
H        3.81245893      10.56727568       1.01345168      -0.09578670      -0.01046667      -0.11455146      -0.01278663      -0.00785236       0.00730132      -3.76115496
N        3.30957899      10.93304111       3.49998951       0.64461381      -0.28587770      -0.08363712      -0.00801024      -0.00588685       0.00751537      -8.75923550
H        3.53499971      11.80391024       3.02233158      -0.24411327       0.22383152       0.08538955      -0.00791852       0.00472191       0.01347059      -3.64583164
H        3.02001191      10.99649701       4.47028340       0.37094315      -0.03715404       0.02081216       0.00840855      -0.00165120       0.02113510      -3.73400282
Pb      -0.01625318       6.66341486       6.43248896      -1.16307058      -2.86221194      -2.86958712       0.00880245      -0.00341386      -0.01806794      -4.62130680
I        3.25609308       6.46158618       5.63819772       3.12977180       0.35696384      -1.87785433      -0.00482867      -0.00405595       0.00845024      -2.02821644
I        0.41724363       9.84914086       6.74499182      -2.31015206      -2.40387500      -0.11158515      -0.01114560       0.00103136       0.00377138      -2.00430073
I       12.93393154       6.85920877       9.74373110      -2.23607411       1.22279780       0.24929471       0.01185170      -0.00322844       0.00542050      -2.00714558
C        3.73717904       9.90063663       9.70386394      -0.04528491       0.14370768      -0.14021428      -0.00725158      -0.01106536       0.00349784      -8.96225185
H        4.79939790       9.78343080       9.93348042       0.19071459      -0.15665952       0.08626067       0.00126907      -0.00548278      -0.01430413      -3.43755923
N        3.28062106      11.10285939       9.43326874      -0.65653339      -0.22636946      -0.31938630      -0.00726679      -0.00431178       0.01511517      -8.68908495
H        3.91377846      11.90069285       9.43507998      -0.09861186      -0.40840033      -0.09405383      -0.00094700      -0.00963320       0.00015801      -3.79926273
H        2.30447038      11.27905270       9.19242248       0.21021622      -0.10999480       0.30071092      -0.00999196      -0.00006059       0.02965075      -3.69373636
N        2.97869097       8.82365787       9.71574906       0.86634245       0.79068076       0.48664504       0.00358359      -0.00244493       0.01494782      -8.73088513
H        1.97827200       8.85909697       9.52636123      -0.02198561      -0.18049937      -0.04488384       0.00329830      -0.02195681      -0.01470146      -3.66330061
H        3.39095654       7.91993314       9.92897320      -0.04434753       0.08286180       0.34225672       0.01278373      -0.00938322      -0.00169693      -3.76281443
Pb       6.81921854      13.03051821       0.11938183      -0.65515327      -1.48102179       1.65870891      -0.01344094       0.01559991       0.01064744      -4.64920819
I       10.02902779      13.43801908       0.14161734       1.56572747       2.18561356      -0.47023801      -0.02082254       0.00795934       0.00514791      -1.93589194
I        6.42257063       3.22560746      -0.23790814      -0.21959742      -0.75580196       0.59980577       0.00930413       0.00950040       0.01136222      -1.98864804
I        6.77909004       0.30598095       3.31669297      -4.69386137       3.78948558       1.55717640      -0.01520909      -0.00429610       0.00842231      -1.96665018
C        9.53008872       3.40587575       3.48790065       0.15215914       0.52991874      -0.13506749      -0.00384672       0.01215082      -0.02033632      -8.93270802
H        8.63918145       3.26501824       2.87097623      -0.12223522      -0.09224019      -0.15634255      -0.00263846       0.00980897      -0.02026294      -3.43484944
N        9.63754014       2.70326234       4.59370545      -0.05475450       0.62334297      -1.06226201      -0.00586585       0.00749494      -0.01391088      -8.64074454
H        8.90536294       2.05785275       4.87730373      -0.26895454       0.00237898       0.03880949      -0.00325123       0.01033958      -0.01374230      -3.80487323
H       10.43896280       2.80926270       5.21917290      -0.29184822       0.33750993      -0.09802017      -0.00273213       0.00560201      -0.02031319      -3.75615124
N       10.44619795       4.26277666       3.08344032       1.58945619      -0.18397578       0.04401051      -0.00448089       0.00845320      -0.01304096      -8.70325658
H       11.24899727       4.49412009       3.66600287      -0.15165407      -0.04300663      -0.10829630      -0.00971460       0.01270381      -0.00719284      -3.66695647
H       10.31937694       4.80291738       2.22945792      -0.09940295       0.05800872       0.13233578       0.00239716       0.01225319      -0.01572509      -3.82103948
Pb       6.56847213      13.07947552       6.53035187       2.18114146      -3.43650608      -1.39910019      -0.00330832       0.00716731       0.00402852      -4.65790219
I        9.90976548      13.04881465       6.95986350       1.57069667       0.97485926      -0.61556722      -0.00974293       0.00713809      -0.00117915      -1.96577477
I        6.50453766       3.30534551       6.68711463      -2.87256744      -0.79282284      -0.53078138      -0.00474822      -0.00712561      -0.01989599      -1.88929536
I        6.32821838      -0.22472608       9.81733459      -1.26598640      -0.24879799      -0.10287260      -0.00572377      -0.00327767       0.00791276      -2.05125103
C        9.64940093       3.49663826      10.06116595      -0.24724381       1.44922960      -0.01815504      -0.00334012      -0.00958646       0.00153381      -8.89329943
H        9.46694299       4.03228534      10.99748839      -0.15213190      -0.23484338       0.10077292      -0.00718247       0.00238944       0.00217798      -3.47475833
N        8.88999332       2.46340323       9.76855065      -0.10314552      -0.26899942       0.99274306       0.00718724       0.00603406       0.00760529      -8.66162343
H        8.11812065       2.19668202      10.37381833      -0.10124079      -0.01829704       0.20392679      -0.00591323       0.00558506       0.00896274      -3.78432351
H        9.05430418       1.89287813       8.93456939       0.21087146       0.51615077       0.15092851      -0.00388220      -0.00720725       0.00721673      -3.74278078
N       10.62831542       3.91423775       9.28934701       0.61899752      -0.38683362      -0.57000633       0.00930079      -0.00225115       0.01445608      -8.65325421
H       10.83731946       3.46907872       8.39554669       0.16983203       0.16775146       0.51827802       0.01767556       0.00325278       0.01043672      -3.68482463
H       11.17559724       4.74359206       9.51940419       0.13653289      -0.13509032       0.05623811       0.00125152      -0.00147190       0.01992168      -3.84529981
Pb       6.62447127       6.49489919      -0.05395035       2.25458431      -0.98905401      -3.61364603      -0.00710720      -0.00403697      -0.00343120      -4.64888024
I        9.85277538       6.31875979      -0.16665799       0.54193201      -2.06409591      -0.28197288      -0.00942699       0.01916247      -0.00983244      -2.01319329
I        6.97144020       9.74705994      -0.01194015      -3.01182870       1.96851048      -0.90061293      -0.00757985       0.00408745       0.01293493      -1.97215184
I        6.87340826       6.35575379       3.14336694      -0.85609806       2.60048370       0.42156430      -0.01589248       0.01371500       0.00556871      -1.90831411
C        9.46216867       9.76714843       3.47253243       0.43461377       0.84444819       0.27746330       0.00271980       0.00623451      -0.01048470      -8.94965538
H        8.39039247       9.94007435       3.60079240      -0.03205701      -0.01746248      -0.00589364      -0.00117200       0.00876203      -0.01478607      -3.45030389
N        9.92807661       9.56882065       2.25804987       0.81228846      -0.73582101       1.05388825      -0.00101405      -0.00034086      -0.00211514      -8.68819022
H        9.29070257       9.56425209       1.46089288      -0.17904270      -0.20535405      -0.09116975       0.00030463      -0.00194460      -0.00391901      -3.81700297
H       10.90598458       9.33244148       2.08802670      -0.05151554      -0.16018944       0.03877349       0.00640303       0.01080791      -0.00711369      -3.68157009
N       10.22117797       9.78566077       4.54941889       1.50154779      -1.20343452       0.89335376      -0.00921322       0.01362229      -0.00069075      -8.79568300
H       11.21530618       9.56747630       4.50582522      -0.00747525       0.00058146       0.05363578      -0.00642105       0.00628159       0.01281463      -3.66656976
H        9.80866285       9.93382326       5.46426795       0.27195697      -0.07373818       0.10152198      -0.01768443       0.02061096      -0.00989053      -3.72289636
Pb       6.48943160       6.49730771       6.36006201       0.14718649       5.46778758      -0.74456567       0.00117216      -0.00376598      -0.00680393      -4.66031586
I        9.80040467       6.55478144       6.55451614      -1.25340376       0.29923580      -0.60803458      -0.00059496      -0.00354311      -0.00248832      -1.93657190
I        6.67958541       9.80843977       6.38532259      -1.39644051      -2.52068382      -0.84932797       0.00086818       0.00862060       0.00465748      -1.98869354
I        5.93559724       6.56236477       9.67074687      -2.99174644       1.51353705       0.85686442       0.00911942      -0.01342912      -0.01030438      -2.01729687
C       10.28633121      10.12698535       9.67487324      -0.76035760      -0.55850715       0.06139141       0.00141987      -0.00325181       0.00976004      -8.88513448
H       11.31976907       9.82774016       9.87018725      -0.17349710      -0.41884358      -0.03636171      -0.00063635      -0.02420923       0.01847860      -3.46490756
N        9.56006744       9.38114492       8.86480381       0.45157061       0.17316109       0.06326069       0.00079220      -0.00499851      -0.00238212      -8.65338223
H        9.94654418       8.55189580       8.41339589       0.18216213       0.06861773      -0.11005290      -0.01570882      -0.01212985       0.00423361      -3.82791261
H        8.65623358       9.69868160       8.50932553       0.01429004      -0.27915853       0.06481584       0.00657894       0.01237617       0.00020441      -3.69339147
N        9.82274281      11.20159798      10.27387508      -0.70160180       0.19659675      -0.99917749       0.00932179      -0.01086389      -0.01266322      -8.62889838
H        8.86884736      11.54092520      10.11457905       0.12930640      -0.23095084       0.11808045       0.00863602       0.00042644      -0.01626412      -3.76576489
H       10.39884479      11.74862289      10.91069624       0.05803367      -0.22007111      -0.14951585       0.00137013      -0.00019145       0.00311678      -3.80026888
