96
Lattice="13.036720129786218 0.15850704405134308 0.0 0.1586462862701448 13.020468739875268 0.0 0.0 0.0 13.017959588757243" Properties=species:S:1:pos:R:3 pbc="T T T"
Pb       0.19167978      12.98580635       0.00000000
I        3.45148891      12.94381601       0.00000000
I        0.17338101       3.21340410       0.00000000
I       12.77774163       0.17836038       3.25448990
C        3.32379615       3.29596600       3.25448990
H        2.70020438       4.19308790       3.25448990
N        2.73272167       2.11557663       3.25448990
H        1.72187651       2.01632585       3.25448990
H        3.27526645       1.25454030       3.25448990
N        4.63236717       3.43251159       3.25448990
H        5.24628123       2.61514865       3.25448990
H        5.07891739       4.35188160       3.25448990
Pb       0.19167978      12.98580635       6.50897979
I        3.45148891      12.94381601       6.50897979
I        0.17338101       3.21340410       6.50897979
I       12.77774163       0.17836038       9.76346969
C        3.32379615       3.29596600       9.76346969
H        2.70020438       4.19308790       9.76346969
N        2.73272167       2.11557663       9.76346969
H        1.72187651       2.01632585       9.76346969
H        3.27526645       1.25454030       9.76346969
N        4.63236717       3.43251159       9.76346969
H        5.24628123       2.61514865       9.76346969
H        5.07891739       4.35188160       9.76346969
Pb       0.11235663       6.47557198       0.00000000
I        3.37216576       6.43358164       0.00000000
I        0.25270415       9.72363847       0.00000000
I       12.85706477       6.68859475       3.25448990
C        3.40311929       9.80620037       3.25448990
H        2.77952752      10.70332227       3.25448990
N        2.81204481       8.62581100       3.25448990
H        1.80119965       8.52656022       3.25448990
H        3.35458959       7.76477467       3.25448990
N        4.71169031       9.94274596       3.25448990
H        5.32560437       9.12538302       3.25448990
H        5.15824053      10.86211597       3.25448990
Pb       0.11235663       6.47557198       6.50897979
I        3.37216576       6.43358164       6.50897979
I        0.25270415       9.72363847       6.50897979
I       12.85706477       6.68859475       9.76346969
C        3.40311929       9.80620037       9.76346969
H        2.77952752      10.70332227       9.76346969
N        2.81204481       8.62581100       9.76346969
H        1.80119965       8.52656022       9.76346969
H        3.35458959       7.76477467       9.76346969
N        4.71169031       9.94274596       9.76346969
H        5.32560437       9.12538302       9.76346969
H        5.15824053      10.86211597       9.76346969
Pb       6.71003984      13.06505987       0.00000000
I        9.96984897      13.02306953       0.00000000
I        6.69174107       3.29265762       0.00000000
I        6.25938156       0.09910686       3.25448990
C        9.84215621       3.37521952       3.25448990
H        9.21856444       4.27234142       3.25448990
N        9.25108173       2.19483015       3.25448990
H        8.24023657       2.09557937       3.25448990
H        9.79362651       1.33379382       3.25448990
N       11.15072723       3.51176511       3.25448990
H       11.76464129       2.69440217       3.25448990
H       11.59727745       4.43113512       3.25448990
Pb       6.71003984      13.06505987       6.50897979
I        9.96984897      13.02306953       6.50897979
I        6.69174107       3.29265762       6.50897979
I        6.25938156       0.09910686       9.76346969
C        9.84215621       3.37521952       9.76346969
H        9.21856444       4.27234142       9.76346969
N        9.25108173       2.19483015       9.76346969
H        8.24023657       2.09557937       9.76346969
H        9.79362651       1.33379382       9.76346969
N       11.15072723       3.51176511       9.76346969
H       11.76464129       2.69440217       9.76346969
H       11.59727745       4.43113512       9.76346969
Pb       6.63071670       6.55482550       0.00000000
I        9.89052583       6.51283516       0.00000000
I        6.77106422       9.80289199       0.00000000
I        6.33870471       6.60934123       3.25448990
C        9.92147936       9.88545389       3.25448990
H        9.29788759      10.78257579       3.25448990
N        9.33040488       8.70506452       3.25448990
H        8.31955972       8.60581374       3.25448990
H        9.87294966       7.84402819       3.25448990
N       11.23005038      10.02199948       3.25448990
H       11.84396444       9.20463654       3.25448990
H       11.67660060      10.94136949       3.25448990
Pb       6.63071670       6.55482550       6.50897979
I        9.89052583       6.51283516       6.50897979
I        6.77106422       9.80289199       6.50897979
I        6.33870471       6.60934123       9.76346969
C        9.92147936       9.88545389       9.76346969
H        9.29788759      10.78257579       9.76346969
N        9.33040488       8.70506452       9.76346969
H        8.31955972       8.60581374       9.76346969
H        9.87294966       7.84402819       9.76346969
N       11.23005038      10.02199948       9.76346969
H       11.84396444       9.20463654       9.76346969
H       11.67660060      10.94136949       9.76346969
