159
Lattice="12.468885909578862 12.45567328789723 0.03660330624248233 -12.500938529614729 12.48755672392219 -0.009239974293740398 0.04511830023029706 0.02729054207635215 25.947711814671685" Properties=species:S:1:pos:R:3:forces:R:3:energies:R:1 energy=-454.0744834461332 stress="0.00018316348509733854 0.00010015306230526924 6.125219792693241e-05 0.00010015306230526924 -7.454106975709434e-06 3.537543289613129e-05 6.125219792693241e-05 3.537543289613129e-05 0.0003956170380633072" free_energy=-454.0744834461332 pbc="T T T"
Pb       0.02089039      -0.00735590       0.00964642       0.00025388      -0.00038545      -0.00001375      -4.40360898
I       -3.10827389       5.40884722      -0.07006450      -0.00010438      -0.00034093       0.00091235      -2.11078683
I        0.84143454       3.11160758       0.20261072      -0.00072960      -0.00045160       0.00089324      -2.11105509
I        0.12500580      -0.22396876       3.25615035      -0.00177941      -0.00133484       0.00081324      -2.12395097
Cs       3.25496743       3.05237273       3.26396926       0.00155195       0.00114329       0.00073784      -3.52262721
Pb       0.03259669      -0.00261702       6.49512651       0.00034737       0.00001828      -0.00063092      -4.40187205
I       -3.09664694       7.04698568       6.56642823      -0.00025778      -0.00220981      -0.00756987      -2.11439565
I       -0.79375248       3.11431344       6.30709059       0.00042881       0.00003935       0.00012788      -2.11229003
I       -0.04593800       0.21776442       9.75116170       0.00461580       0.00059465       0.00202719      -2.12543018
Cs       3.04194021       3.18260483       9.74133727      -0.00132774       0.00013112      -0.00052751      -3.52103553
Pb       0.01422483       6.22922630       0.01728237       0.00024162      -0.00004412      -0.00011674      -4.40456758
I        3.13565443       7.05260505       0.10408176      -0.00015948       0.00024392      -0.00113875      -2.11055053
I       -0.81450578       9.34767735      -0.16884910       0.00056593       0.00004229      -0.00020776      -2.11105816
I       -0.07303690       6.45401446       3.26125643       0.00385163       0.00106727       0.00017979      -2.12271616
Cs      -3.22405649       3.15970828       3.24868289       0.00002204       0.00012552       0.00040151      -3.52274528
Pb       0.02755911       6.23154196       6.49968792       0.00026519       0.00035853      -0.00065824      -4.40138687
I        3.14516527       5.40380411       6.42143490       0.00035242       0.00038152       0.00291791      -2.11359706
I        0.83581837       9.35553789       6.71742276      -0.00027832      -0.00025031       0.00386390      -2.11362557
I        0.11999322       6.02781242       9.75040103      -0.00289822       0.00119731      -0.00010762      -2.12750611
Cs      -2.95790177       3.09083257       9.73529825       0.00086722      -0.00031229       0.00088124      -3.51906944
Pb       0.02703940       0.01807700      12.98481780      -0.00217441      -0.00043311       0.00017189      -4.37438766
I       -3.08534589       5.43159481      12.90450089       0.00002719       0.00212649       0.00160092      -2.11380280
I        0.86442502       3.12839382      13.17598785      -0.00182953      -0.00231748       0.00051370      -2.11894181
I        0.15961938      -0.21518520      16.21589771      -0.00025707      -0.00257313      -0.00231594      -2.12617084
Cs       3.28421038       3.07055533      16.24327969       0.00539563       0.00181630      -0.00153387      -3.52173711
Pb       0.05613001       0.01252388      19.47132968       0.00102829       0.00095992       0.00008033      -4.40167270
I       -3.07375606       7.06443415      19.57898055       0.00067996      -0.00332807       0.00327218      -2.11612321
I       -0.77046935       3.12807972      19.27494714      -0.00030001      -0.00029860      -0.00112344      -2.11132633
I       -0.03518277       0.23428187      22.71050567       0.00353449       0.00060760      -0.00107747      -2.12409172
Cs       3.05971407       3.18147521      22.72119651      -0.00175670      -0.00324111      -0.00139073      -3.52186562
Pb       0.04379592       6.24021844      12.99189686      -0.00075829       0.00113738       0.00022624      -4.39368497
I        3.17434445       7.06633839      13.07734550      -0.00012357      -0.00121935      -0.00173788      -2.11806791
I       -0.81706961       9.38699643      12.80983321      -0.00070859      -0.00137577       0.00061029      -2.12457127
I       -0.04858880       6.46473122      16.23171187       0.00317919      -0.00071066       0.00039765      -2.12839955
Cs      -3.20416346       3.17722484      16.22713966      -0.00020929      -0.00008839      -0.00080750      -3.51890985
Pb       0.04997496       6.24465341      19.48199014       0.00125325      -0.00103028       0.00045430      -4.40162544
I        3.16761599       5.41730831      19.39191267       0.00077816      -0.00110269       0.00199733      -2.11232134
I        0.86171659       9.36835591      19.66884382       0.00115328      -0.00133960      -0.00068862      -2.11441494
I        0.14983472       6.03158159      22.72039455       0.00013038      -0.00058271      -0.00001747      -2.12284789
Cs      -2.93936400       3.09831286      22.71536881       0.00004041      -0.00083974      -0.00043208      -3.52275639
Pb      -6.22952806       6.23735333       0.00550136      -0.00029325      -0.00007301      -0.00004720      -4.40455043
I       -9.35742979      11.65183642      -0.07470530      -0.00020624      -0.00072500       0.00072093      -2.11130132
I       -5.40820943       9.35673548       0.19807431      -0.00078682       0.00008031       0.00039917      -2.11105933
I       -6.12848979       6.02138914       3.25000651      -0.00410347      -0.00127322       0.00015608      -2.12249274
Cs      -2.99225767       9.29848558       3.26009541       0.00191378       0.00296874      -0.00200650      -3.52243758
Pb      -6.22157737       6.23891412       6.48837159      -0.00107843      -0.00067608      -0.00036385      -4.40151685
I       -9.34454386      13.30249525       6.59271393      -0.00020420      -0.00020946       0.00049014      -2.11218874
I       -7.04316913       9.36091348       6.31091015      -0.00162886      -0.00123004       0.00184853      -2.11409815
I       -6.30659237       6.47124073       9.73916360       0.00271182       0.00134965      -0.00015960      -2.12829782
Cs      -3.20630449       9.34469148       9.69989254       0.00002656      -0.00843143      -0.00366186      -3.51384512
Pb      -6.23644770      12.47281842       0.01065758      -0.00055119       0.00004187      -0.00018720      -4.40147044
I       -3.11504400      13.29577461       0.09954290      -0.00019134      -0.00060060      -0.00120275      -2.11177252
I       -7.06566009      15.58903921      -0.17475136      -0.00030015      -0.00025165      -0.00092565      -2.11079512
I       -6.32340215      12.69677360       3.26043280       0.00013459      -0.00187867      -0.00064437      -2.12567878
Cs      -9.47377156       9.40239718       3.24600822       0.00081993       0.00017657       0.00051409      -3.52134667
Pb      -6.22462018      12.47847279       6.48564435       0.00027135      -0.00098013      -0.00098680      -4.39858695
I       -3.10760142      11.65070654       6.41973576      -0.00052385      -0.00157049      -0.00172096      -2.10851731
I       -5.41759219      15.59519786       6.68790958      -0.00132288       0.00054863      -0.00788670      -2.11149907
I       -6.05654030      12.29487569       9.77217673       0.00774598       0.00230260      -0.00128295      -2.13188703
Cs      -9.21193644       9.32231418       9.72988418       0.00078927       0.00175502       0.00196623      -3.51389216
Pb      -6.21260342       6.25001408      12.97861427       0.00105765       0.00146979      -0.00021427      -4.39311869
I       -9.20823974      11.71483196      12.91708326       0.00029763       0.00044728       0.00401926      -2.13206299
I       -5.36049371       9.40026677      13.17393770      -0.00013889      -0.00054013       0.00094808      -2.12564545
I       -6.10058619       6.04433884      16.22011875      -0.00176158       0.00068391       0.00018994      -2.12821270
Cs      -2.97959192       9.23514672      16.28439721      -0.00170581      -0.00468720       0.00455829      -3.51133121
Pb      -6.19863133       6.25349205      19.47059900      -0.00036876       0.00012397       0.00059247      -4.40087485
I       -9.31860214      13.31784524      19.54189964       0.00093013       0.00008790      -0.00668798      -2.11435686
I       -7.01469233       9.37674195      19.26160306       0.00097259       0.00009352      -0.00358906      -2.11438334
I       -6.29042891       6.48085197      22.70870367       0.00001852       0.00129442      -0.00027481      -2.12259392
Cs      -3.18644470       9.42827582      22.71737412      -0.00160144      -0.00000874       0.00172118      -3.52210365
Pb      -6.28179193      12.46758181      12.97550475       0.00767953       0.00248268      -0.00127820      -4.17116933
I       -7.00888979      15.58153363      12.79138345      -0.00224208       0.00259189      -0.00081121      -2.11734411
I       -6.20094956      12.74917956      16.19165903       0.01700531       0.00706291      -0.00052616      -2.13829650
Cs      -9.45913036       9.39466367      16.23383460      -0.00078874      -0.00387793      -0.00061586      -3.51192082
Pb      -6.19505913      12.49237066      19.48014841       0.00184983       0.00038353      -0.00055974      -4.39796477
I       -3.08146882      11.66737549      19.38188018       0.00095740      -0.00233442       0.00594409      -2.10783470
I       -5.37823651      15.60913574      19.66657886      -0.00064959       0.00131048       0.00489327      -2.11324633
I       -6.10035742      12.27774707      22.70699069      -0.00322929      -0.00036759      -0.00035536      -2.12639211
Cs      -9.19130171       9.34209963      22.70980061       0.00014090       0.00007287      -0.00064711      -3.52093391
Pb       6.25521487       6.22109548       0.02861299      -0.00037447       0.00009750      -0.00011929      -4.40457173
I        3.12483541      11.63591590      -0.05098550      -0.00001084      -0.00069898       0.00121746      -2.11141719
I        7.07698822       9.33923199       0.22183497      -0.00019127       0.00009904       0.00093527      -2.11042791
I        6.36012678       6.00348224       3.27282549      -0.00241969       0.00139611      -0.00054583      -2.12242349
Cs       9.49278612       9.27860931       3.28486449       0.00149918       0.00240777       0.00059714      -3.52132759
Pb       6.26409017       6.22821827       6.51023080      -0.00009584       0.00129181      -0.00175717      -4.40149940
I        3.13153695      13.28659588       6.62101285      -0.00064880      -0.00011431       0.00275546      -2.11346036
I        5.43900837       9.34306345       6.32659840      -0.00189699       0.00108307       0.00024921      -2.11386061
I        6.20158934       6.42531261       9.76302759       0.00737334      -0.00229870      -0.00105227      -2.12651694
Cs       9.27609969       9.40521538       9.75993682      -0.00149190       0.00083366      -0.00030148      -3.51635864
Pb       6.24864387      12.45608319       0.03584545      -0.00033385      -0.00034887      -0.00004722      -4.40350892
I        9.36987788      13.27930338       0.12269765      -0.00016623      -0.00054837      -0.00105708      -2.11123394
I        5.42069113      15.57409436      -0.15106341       0.00055943      -0.00049941      -0.00086368      -2.11109810
I        6.15735153      12.67894031       3.28267327       0.00077638       0.00009924       0.00105337      -2.12461705
Cs       3.01072062       9.38721242       3.26794469      -0.00076576       0.00069792       0.00051942      -3.52115745
Pb       6.25647994      12.46238368       6.52214424      -0.00137199       0.00115587      -0.00009092      -4.40181952
I        9.37777255      11.63097376       6.44342745      -0.00042751       0.00069097       0.00351745      -2.11366487
I        7.07461484      15.57896394       6.72642956       0.00027594      -0.00012217       0.00144808      -2.11168058
I        6.34202196      12.23920179       9.77758833      -0.00378461      -0.00159699       0.00223880      -2.12641430
Cs       3.28476914       9.29281853       9.74819992       0.00256258      -0.00403033       0.00074279      -3.51308110
Pb       6.29827303       6.23094397      13.00454898       0.00110100      -0.00244231       0.00027283      -4.39434283
I        3.02165020      11.70457987      12.90611576      -0.00053946       0.00116356      -0.00303637      -2.13113324
I        7.08993572       9.35497806      13.19591672      -0.00134587       0.00073756      -0.00048908      -2.12037020
I        6.39517531       6.00638346      16.24345870      -0.00292494       0.00028264       0.00080382      -2.12583018
Cs       9.51509883       9.29819947      16.26253708       0.00129564       0.00370784       0.00033875      -3.51748181
Pb       6.28723487       6.24030237      19.49253470      -0.00051343       0.00130456       0.00064038      -4.40244502
I        3.15812490      13.30229714      19.57079757       0.00066288       0.00034465      -0.00402647      -2.11275826
I        5.46431667       9.35561003      19.29224548      -0.00172217       0.00089793      -0.00161435      -2.11208854
I        6.19879806       6.45975412      22.73119364       0.00192402       0.00192522       0.00003435      -2.12299237
Cs       9.29814135       9.40754994      22.73663286      -0.00180404      -0.00145599      -0.00018420      -3.52185112
Pb       6.28793429      12.48175232      13.01079683       0.00214518      -0.00037072       0.00015026      -4.37429194
I        9.39268126      13.27093226      13.09545756      -0.00006282      -0.00507612      -0.00177768      -2.12761942
I        5.44373516      15.59263440      12.82413706       0.00210920      -0.00192743      -0.00035951      -2.11929012
I        6.16975836      12.68838161      16.24218625      -0.00106075      -0.00006239      -0.00201729      -2.12606927
Cs       3.02391532       9.39459892      16.25264639      -0.00262607       0.00219303      -0.00171655      -3.51591177
Pb       6.28102057      12.47437536      19.49841207      -0.00028603       0.00011473       0.00052059      -4.40191377
I        9.40270172      11.64628946      19.40822121       0.00060511       0.00086664       0.00128276      -2.11297937
I        7.09890036      15.59311674      19.69343340      -0.00021976       0.00008159      -0.00056442      -2.11208748
I        6.38119417      12.25727291      22.73721073      -0.00221233      -0.00067349      -0.00080451      -2.12415134
Cs       3.29461134       9.32554001      22.73171500      -0.00033489      -0.00059767      -0.00040507      -3.52148377
Pb       0.00507003      12.46501933       0.02722295       0.00045236       0.00003779       0.00045542      -4.40137968
I       -3.12423967      17.88104709      -0.05610167      -0.00010981       0.00029814       0.00083057      -2.11109475
I        0.82681246      15.58229859       0.21774786       0.00007867      -0.00016411       0.00138508      -2.11078213
I        0.10584561      12.25209545       3.28069035      -0.00067237      -0.00143207       0.00074505      -2.12593002
Cs       3.24667834      15.52379718       3.27766432       0.00167086       0.00091989       0.00140044      -3.52195119
Pb       0.00886250      12.46889120       6.50670401      -0.00175645      -0.00018326       0.00109019      -4.39651803
I       -3.11194851      19.51912202       6.61387952       0.00022028       0.00014596      -0.00141376      -2.11250470
I       -0.81270641      15.58590009       6.31685685       0.00212854       0.00084353      -0.00713392      -2.11478734
I       -0.17533614      12.72801140       9.79574508      -0.01360053       0.00622345       0.00040443      -2.13958142
Cs       3.02641776      15.65107245       9.75632308      -0.00397634      -0.00124557       0.00220011      -3.52011384
Pb      -0.00177168      18.70045099       0.03016654       0.00025876       0.00010502       0.00000625      -4.40427085
I        3.11915932      19.52418607       0.11841268      -0.00018493       0.00019680      -0.00097101      -2.11064524
I       -0.83089616      21.81755450      -0.15688718       0.00002865       0.00000241      -0.00116601      -2.11048966
I       -0.09421689      18.92183926       3.27527384       0.00162422       0.00230574      -0.00006014      -2.12345996
Cs      -3.23758872      15.63425989       3.25745994      -0.00025272      -0.00008700      -0.00288965      -3.52269743
Pb       0.01078319      18.70690785       6.51338079       0.00045158       0.00105657      -0.00093223      -4.40140978
I        3.12800887      17.87395010       6.43532594      -0.00036220      -0.00090611       0.00310020      -2.11307007
I        0.82498341      21.82255119       6.72273910       0.00138562       0.00055813       0.00169860      -2.11241148
I        0.08806529      18.47138405       9.76369564      -0.00310200      -0.00068317      -0.00063867      -2.12905216
Cs      -2.97178465      15.65238840       9.65061199      -0.00267868       0.01365500      -0.01406540      -3.45309393
Pb       0.09543563      12.45443222      13.00255481      -0.00768133       0.00135634       0.00042270      -4.17169700
I       -3.10186742      17.75097058      12.93179144      -0.00035806      -0.01003055       0.00341024      -2.14015944
I        0.80790586      15.57224038      13.20269341       0.00084234       0.00190884       0.00110161      -2.11810173
I        0.07005286      12.28478630      16.21413725      -0.00871174      -0.00029400       0.00119227      -2.13013111
Cs       3.26295835      15.54735122      16.25637517       0.00055942       0.00276663       0.00051321      -3.52121404
Pb       0.03539133      12.48562924      19.49989356      -0.00008188      -0.00104659       0.00137457      -4.39941632
I       -3.09045029      19.53656563      19.56685115       0.00010881       0.00074821      -0.00228484      -2.11161951
I       -0.78485024      15.59938254      19.29261435       0.00091609       0.00048982       0.00550379      -2.11116930
I       -0.05674680      12.70860228      22.72613594       0.00349935      -0.00067122       0.00094439      -2.12550784
Cs       3.05186163      15.65428810      22.73511712      -0.00140059      -0.00244987      -0.00072487      -3.52229904
Pb      -0.00072363      18.70906993      13.00472645      -0.00164247      -0.00293161       0.00030819      -4.39459544
I        3.12582322      19.53577359      13.09013809      -0.00035400      -0.00237420      -0.00156152      -2.11836511
I       -0.79727982      21.83246539      12.81523985       0.00138849       0.00053639      -0.00031942      -2.12082126
I       -0.09662470      18.91164277      16.24384619      -0.00162651      -0.00149823       0.00095071      -2.12595060
Cs      -3.21942455      15.70334720      16.31311195       0.00240821       0.00425561       0.01080858      -3.44707962
Pb       0.03159354      18.71936855      19.49541772      -0.00016720       0.00117742       0.00113711      -4.40192611
I        3.15076943      17.89064577      19.40446389      -0.00010412       0.00079634       0.00109791      -2.11325748
I        0.84865045      21.83658099      19.68744588       0.00174028       0.00105315      -0.00041601      -2.11394144
I        0.13052489      18.49834937      22.73334624      -0.00099803       0.00074690       0.00037151      -2.12334172
Cs      -2.95801478      15.57439136      22.73204310       0.00024424      -0.00058855       0.00232620      -3.52279922
159
Lattice="12.468885909578862 12.45567328789723 0.03660330624248233 -12.500938529614729 12.48755672392219 -0.009239974293740398 0.04511830023029706 0.02729054207635215 25.947711814671685" Properties=species:S:1:pos:R:3:forces:R:3:energies:R:1 energy=-454.0654381387566 stress="0.0001831500888973432 8.746351732177331e-05 3.030527177540154e-05 8.746351732177331e-05 -3.600211031990929e-05 3.571125464500052e-05 3.030527177540154e-05 3.571125464500052e-05 0.0004771205893220607" free_energy=-454.0654381387566 pbc="T T T"
Pb       0.01744426      -0.00776121       0.00966678      -0.00102263       0.00025850      -0.00003746      -4.40284576
I       -3.10853613       5.40922513      -0.05773245      -0.00016807       0.00064708       0.00268909      -2.11315818
I        0.83797802       3.11134744       0.21404285       0.00057876      -0.00023930       0.00224900      -2.11122259
I        0.10266226      -0.23255566       3.25618940      -0.00342702      -0.00100870       0.00041342      -2.12545982
Cs       3.26255435       3.06500823       3.26774614       0.00083457       0.00470876       0.00115295      -3.52667912
Pb       0.01380606      -0.00203779       6.49191834      -0.00132937       0.00076184       0.00059721      -4.40048961
I       -3.10716493       7.04457493       6.55711941      -0.00233004      -0.00065909      -0.00245650      -2.11309445
I       -0.79138629       3.12234023       6.30688421      -0.00164466      -0.00053052       0.00077676      -2.11203410
I       -0.02579630       0.21498458       9.75441568       0.00084209      -0.00058530      -0.00061844      -2.13218185
Cs       3.02394416       3.15328612       9.73970694      -0.00005412      -0.00222993      -0.00081831      -3.52038984
Pb       0.01723500       6.22801985       0.02687538       0.00052891      -0.00002049       0.00098109      -4.40243329
I        3.13438080       7.05705628       0.10058148       0.00017933       0.00117867       0.00085223      -2.10817503
I       -0.80949714       9.35177790      -0.14111263       0.00146488      -0.00156644      -0.00227255      -2.11585922
I       -0.04382937       6.47116105       3.27592157       0.00190401       0.00083952       0.00020425      -2.12666058
Cs      -3.22942839       3.15603591       3.25534299      -0.00215156      -0.00112604       0.00119319      -3.52052768
Pb       0.01806596       6.24414906       6.51553791      -0.00164739      -0.00067375       0.00197975      -4.40010572
I        3.13757240       5.42069516       6.44649840       0.00030841       0.00062337       0.00441186      -2.11433223
I        0.80390519       9.37080834       6.80002229      -0.00545805       0.00089995       0.00261278      -2.11569322
I        0.11099671       6.02153994       9.76418226      -0.00274749      -0.00323372       0.00111594      -2.12711074
Cs      -2.94871451       3.08851293       9.74036984      -0.00114970      -0.00193855       0.00249432      -3.51942755
Pb       0.02694945       0.00600170      12.99118622       0.00038360       0.00201094       0.00181356      -4.37226759
I       -3.08053406       5.42624341      12.91553782       0.00110873      -0.00122172       0.00273023      -2.11520561
I        0.86257984       3.11439489      13.18681652      -0.00415982       0.00355709       0.00167639      -2.11830860
I        0.14664964      -0.23019945      16.21700930      -0.00455515      -0.00164358       0.00162011      -2.12465881
Cs       3.30615987       3.07618001      16.24048529       0.00319701       0.00223307      -0.00135166      -3.52317384
Pb       0.05942902       0.01327558      19.47061585       0.00000579       0.00021551      -0.00047868      -4.40125558
I       -3.06964599       7.05108006      19.59735155       0.00041479      -0.00017842       0.00120743      -2.11588712
I       -0.76954708       3.12539796      19.27616351      -0.00109139      -0.00010921      -0.00019973      -2.11074337
I       -0.01765351       0.24012541      22.70999870       0.00106625       0.00162863       0.00059273      -2.12603920
Cs       3.05209792       3.16077426      22.71796545       0.00012272      -0.00334922      -0.00019267      -3.52291807
Pb       0.04608902       6.23004741      13.00654814      -0.00120537       0.00436136      -0.00005920      -4.39465944
I        3.18027161       7.06031203      13.07619935      -0.00080475       0.00217560      -0.00230937      -2.12195740
I       -0.81513715       9.37409519      12.86871455      -0.00237618       0.00465218      -0.01026300      -2.11839069
I       -0.02896312       6.44798038      16.24604829      -0.00019355       0.00343855      -0.00071297      -2.12504361
Cs      -3.20239856       3.16961015      16.22476716      -0.00083916      -0.00308532      -0.00037015      -3.51834110
Pb       0.05718936       6.23913948      19.49322679       0.00043686      -0.00038259       0.00011895      -4.40366276
I        3.17033400       5.40938722      19.41185569       0.00043574      -0.00246752       0.00304986      -2.10973289
I        0.86857040       9.36434950      19.67792468       0.00146348      -0.00031838      -0.00513531      -2.11405774
I        0.14568916       6.02816684      22.73371206      -0.00011493      -0.00054311       0.00158542      -2.12213686
Cs      -2.93812563       3.09685691      22.71642586      -0.00072703       0.00098840       0.00055516      -3.52188544
Pb      -6.23457630       6.23143100       0.00699827      -0.00102788      -0.00080344       0.00123525      -4.40479865
I       -9.36357352      11.65143609      -0.07512174      -0.00130064       0.00016711      -0.00152269      -2.11062981
I       -5.42012050       9.35432920       0.19312936      -0.00120177      -0.00021055      -0.00012227      -2.11239324
I       -6.14936251       6.00613925       3.25143967      -0.00193313      -0.00054295       0.00088626      -2.12206823
Cs      -2.99042650       9.27238850       3.23266461      -0.00114644      -0.00143904       0.00098187      -3.51956763
Pb      -6.22942639       6.23528881       6.48839872      -0.00254811      -0.00018776       0.00182542      -4.40199322
I       -9.37160199      13.30093791       6.56675035      -0.00117382       0.00129728      -0.00190281      -2.10888859
I       -7.07500438       9.34638160       6.30831714      -0.00214894      -0.00028057       0.00146354      -2.11209079
I       -6.31185559       6.46398406       9.74141116       0.00335582       0.00433842       0.00097399      -2.12938576
Cs      -3.21474454       9.34728659       9.71440983       0.00280791       0.00627035      -0.00749381      -3.52729706
Pb      -6.24581666      12.47235894       0.00631307      -0.00102784      -0.00048459      -0.00099682      -4.40238121
I       -3.11647255      13.28691070       0.11671082      -0.00169741      -0.00294172      -0.00285008      -2.11737866
I       -7.06563390      15.59182063      -0.17964862       0.00056431       0.00046002      -0.00006309      -2.11226509
I       -6.35941912      12.66897118       3.24302488      -0.00472119      -0.00193398      -0.00107296      -2.11568872
Cs      -9.47977871       9.40371293       3.23823831      -0.00253700       0.00006610      -0.00047022      -3.52460475
Pb      -6.25449710      12.45840984       6.46581379       0.00003814       0.00019948      -0.00060021      -4.40389350
I       -3.15152875      11.61496767       6.33834240       0.00060082       0.00226656       0.00078531      -2.10102569
I       -5.47600418      15.59011057       6.57626485       0.00511116      -0.00012938       0.00732718      -2.11361022
I       -6.15172501      12.28597979       9.75282632       0.00416677      -0.00007822       0.00221863      -2.12770571
Cs      -9.21023509       9.34524339       9.74399918      -0.00120165       0.00271342       0.00307822      -3.51825979
Pb      -6.20380682       6.25664000      12.98229191       0.00141822       0.00018783       0.00035271      -4.39179606
I       -9.19630609      11.72650801      12.96670258       0.00169110       0.00077099       0.00515371      -2.12976917
I       -5.35723253       9.40620089      13.18350151       0.00057307       0.00123494      -0.00064698      -2.12735334
I       -6.10709333       6.04052303      16.22331103       0.00066548       0.00038819       0.00075536      -2.12970587
Cs      -2.98716665       9.22783728      16.31752489      -0.00047955       0.00039045      -0.00013850      -3.51409200
Pb      -6.19730735       6.25422451      19.47575705       0.00045037      -0.00074879       0.00022478      -4.40047765
I       -9.31270538      13.31386666      19.50921751       0.00067156      -0.00107159      -0.00516916      -2.11551873
I       -7.00419619       9.38021960      19.24305424       0.00272141       0.00029996      -0.00262546      -2.11541751
I       -6.28767290       6.48606218      22.71058282       0.00066504      -0.00056383       0.00126487      -2.12208744
Cs      -3.18725233       9.41895263      22.74218660       0.00031884      -0.00144521       0.00075183      -3.52095878
Pb      -6.26594260      12.47906809      12.96229733      -0.00584801      -0.00108946       0.00112184      -4.17269008
I       -7.01751650      15.58714501      12.78299503      -0.00365152      -0.00133394      -0.00102736      -2.11746940
I       -6.11247143      12.78024921      16.18298567       0.01017433       0.00331419      -0.00128216      -2.13924531
Cs      -9.46362535       9.37727635      16.23434728      -0.00148928      -0.00367912       0.00124135      -3.51002104
Pb      -6.18593703      12.49587402      19.47380550       0.00161641       0.00087437      -0.00069464      -4.39613550
I       -3.07373380      11.65777533      19.43159989       0.00117578       0.00013549       0.00224756      -2.11058414
I       -5.38402702      15.61508864      19.69978560       0.00011113       0.00099098       0.00533482      -2.11494277
I       -6.12120004      12.27384242      22.69858213      -0.00248474      -0.00189222      -0.00037890      -2.12506730
Cs      -9.18864861       9.34463004      22.70750627       0.00168979      -0.00030423      -0.00082176      -3.52232136
Pb       6.25218853       6.22696906       0.02446142      -0.00016815       0.00131500       0.00072623      -4.40656267
I        3.12108586      11.63031179      -0.01333676       0.00120958      -0.00042243      -0.00211447      -2.11172793
I        7.07765898       9.34239268       0.22934336       0.00076749       0.00086838       0.00105386      -2.10860942
I        6.34140243       6.03492405       3.26641117      -0.00095791       0.00019180       0.00122794      -2.11615987
Cs       9.50346166       9.29905143       3.28572694      -0.00074779       0.00035634       0.00068253      -3.51943916
Pb       6.25161937       6.24037815       6.48796831       0.00118493      -0.00141588       0.00307884      -4.39255989
I        3.07847693      13.26472992       6.77435073       0.00048650      -0.00177047       0.00122484      -2.11726125
I        5.42362802       9.35108083       6.32826716      -0.00122795      -0.00172649       0.00349884      -2.11785494
I        6.26016084       6.38984839       9.76228208       0.00215327       0.00003515       0.00082052      -2.14749860
Cs       9.29432343       9.42553103       9.76404506       0.00213459      -0.00228014      -0.00044719      -3.51493522
Pb       6.24255652      12.45598505       0.04637302      -0.00091865       0.00039212       0.00058531      -4.40212934
I        9.36446836      13.27717315       0.12271693      -0.00084325       0.00151101      -0.00018881      -2.11286165
I        5.41571707      15.57138904      -0.14920313      -0.00260891      -0.00032832       0.00114177      -2.10795283
I        6.12838889      12.68969301       3.29866821      -0.00272206      -0.00024446       0.00052449      -2.13042351
Cs       2.98398316       9.39007031       3.28937855      -0.00316854      -0.00188330       0.00262997      -3.51984156
Pb       6.22203707      12.47516185       6.54357153       0.00019635      -0.00117079       0.00162722      -4.39969049
I        9.34655629      11.64829909       6.45009373       0.00031495      -0.00014742      -0.00071741      -2.11281891
I        7.06744499      15.57893578       6.74039273      -0.00134300      -0.00014878       0.00165479      -2.11334065
I        6.37098749      12.22826336       9.78516600       0.00249519      -0.00204616       0.00054930      -2.11834181
Cs       3.33828207       9.21377244       9.74103605      -0.00433020       0.00468562       0.00101900      -3.49608467
Pb       6.30283552       6.22693210      13.02323629      -0.00014304      -0.00106073      -0.00092209      -4.38969212
I        2.97393195      11.73348935      12.76928488      -0.00326906       0.00196557       0.00503586      -2.13859642
I        7.08709445       9.35160644      13.19511688      -0.00287356      -0.00184913       0.00109359      -2.12163937
I        6.36169703       6.00748769      16.25085989      -0.00057211      -0.00335694       0.00013946      -2.12319311
Cs       9.52630570       9.31246631      16.26031915      -0.00038722       0.00005044      -0.00051033      -3.51773236
Pb       6.28241428       6.24873164      19.49936126      -0.00037601       0.00095810       0.00018308      -4.40397165
I        3.15899159      13.30513050      19.57179585       0.00003736       0.00112466      -0.00198350      -2.11287186
I        5.45245381       9.35860110      19.28585459      -0.00338371      -0.00032505      -0.00271925      -2.10935571
I        6.21169742       6.47709556      22.73217363       0.00074448       0.00494560       0.00100866      -2.12222854
Cs       9.28858701       9.40210967      22.73723710      -0.00148387      -0.00102744      -0.00019616      -3.52065139
Pb       6.27293948      12.47437931      13.00552099      -0.00043782      -0.00056629       0.00095754      -4.36971132
I        9.38268344      13.24160414      13.09269662      -0.00255814      -0.00259121       0.00234972      -2.12687970
I        5.46944256      15.59297694      12.83353965       0.00112762       0.00069235       0.00020353      -2.11713965
I        6.14782165      12.67850075      16.24191021      -0.00477952      -0.00279924       0.00026624      -2.13010123
Cs       3.00829705       9.42288125      16.22904310      -0.00132814       0.00517829      -0.00347703      -3.51321286
Pb       6.27840586      12.47204327      19.50317898      -0.00104091      -0.00090105      -0.00042291      -4.40047342
I        9.40319524      11.65042111      19.41896135      -0.00053197      -0.00069616       0.00096451      -2.11419002
I        7.09631669      15.59238060      19.69296096      -0.00003055      -0.00102351      -0.00024706      -2.11188817
I        6.36264622      12.25318283      22.74446483      -0.00173431      -0.00004516       0.00065777      -2.12642849
Cs       3.29513754       9.33446078      22.74601624      -0.00081324       0.00178233      -0.00183875      -3.52339798
Pb       0.00934202      12.46950331       0.08192323       0.00051381      -0.00080301      -0.00153016      -4.39383117
I       -3.12536553      17.88549849      -0.04531563      -0.00052721      -0.00016034       0.00112753      -2.11228916
I        0.83058242      15.58435233       0.25099854      -0.00138515       0.00092669      -0.00206025      -2.11246694
I        0.12960506      12.28438280       3.36627008       0.00110610      -0.00251319      -0.01145957      -2.12801765
Cs       3.23740678      15.49587873       3.32209118      -0.00337243      -0.00464990       0.00293203      -3.52041095
Pb      -0.06962555      12.47829056       6.60279710       0.00267380       0.00189963      -0.00807080      -4.38574183
I       -3.11553329      19.51822035       6.61546056      -0.00119295       0.00262700      -0.00293999      -2.11985715
I       -0.84101837      15.59663602       6.33973188       0.00334385       0.00139755      -0.01423136      -2.11542510
I       -0.67027699      12.77412646       9.87904794       0.06536471      -0.00001710      -0.02377215      -2.13924367
Cs       3.03478220      15.70716425       9.79997964      -0.00995893      -0.00410655       0.00433418      -3.50628231
Pb      -0.00096525      18.70234649       0.03847071      -0.00038647       0.00043698       0.00085569      -4.40449386
I        3.11779734      19.52444864       0.11146374      -0.00055708       0.00045742      -0.00093774      -2.10877193
I       -0.83138887      21.81746520      -0.16244479      -0.00094946       0.00068382      -0.00094067      -2.11033321
I       -0.08855532      18.92914962       3.28492742       0.00003641       0.00344840      -0.00130654      -2.12378304
Cs      -3.22283653      15.63307393       3.24955186      -0.00269161       0.00073932      -0.00251126      -3.52308196
Pb       0.01376136      18.71317861       6.51783607      -0.00117277       0.00107858      -0.00024620      -4.39785291
I        3.12094991      17.85986844       6.44897604      -0.00089405      -0.00174458       0.00409722      -2.11507058
I        0.81724399      21.82638074       6.72885874      -0.00043004       0.00235950       0.00233227      -2.11071477
I        0.08244934      18.49081417       9.77439085      -0.00409898       0.00478998       0.00078141      -2.13572274
Cs      -3.11373889      15.95044797       9.56993251       0.00665305      -0.01878982       0.00355206      -3.46848218
Pb       0.04019818      12.46230688      13.00730498       0.00294314       0.00227838      -0.00310299      -4.16001613
I       -3.09533163      17.74930529      13.01667960      -0.00060945      -0.00566028      -0.00452468      -2.14178756
I        0.84202810      15.56459355      13.20026152      -0.00221264       0.00170142       0.00490763      -2.11864690
I        0.06363827      12.29823809      16.22905682       0.00176206       0.00290407       0.00158076      -2.13507886
Cs       3.27922461      15.55817060      16.27000529      -0.00432238       0.00232044      -0.00259290      -3.51895209
Pb       0.04037882      12.47920240      19.52991256       0.00129264      -0.00006527       0.00234063      -4.39428548
I       -3.09108149      19.54061573      19.55147138       0.00016903       0.00038395      -0.00235814      -2.11313149
I       -0.77443042      15.59683831      19.34273527       0.00076030      -0.00039540       0.00455786      -2.11378737
I       -0.02645560      12.69625699      22.77180555       0.00280170      -0.00190159      -0.00489547      -2.12570140
Cs       3.04124482      15.64502707      22.74522864      -0.00194861      -0.00092299       0.00011062      -3.52353979
Pb       0.00913548      18.68944308      13.02134354      -0.00266609       0.00302470       0.00044845      -4.39376951
I        3.13315317      19.52883279      13.08510176      -0.00115154      -0.00163225      -0.00113779      -2.11960720
I       -0.78021200      21.81800268      12.81847542      -0.00153482       0.00224494       0.00297411      -2.11995531
I       -0.07345120      18.90405087      16.25795162       0.00266083      -0.00240993       0.00044708      -2.12604616
Cs      -3.20960213      15.71460701      16.37837483       0.00068187       0.00373086       0.00285537      -3.44946000
Pb       0.03235780      18.72348127      19.50931215       0.00081744      -0.00011542       0.00166374      -4.40145110
I        3.15128833      17.89746877      19.42395817       0.00064678      -0.00150799       0.00096112      -2.11229289
I        0.85239686      21.83783135      19.69068301       0.00103777       0.00029426       0.00105966      -2.11443579
I        0.12383074      18.49971520      22.74536211      -0.00169984       0.00008995       0.00195587      -2.12200647
Cs      -2.95496275      15.56531816      22.75544158       0.00137743      -0.00192219       0.00288067      -3.52037776
159
Lattice="12.468885909578862 12.45567328789723 0.03660330624248233 -12.500938529614729 12.48755672392219 -0.009239974293740398 0.04511830023029706 0.02729054207635215 25.947711814671685" Properties=species:S:1:pos:R:3:forces:R:3:energies:R:1 energy=-453.9716440846611 stress="0.00015744780368438975 8.808567005375207e-05 1.2382691980726979e-05 8.808567005375207e-05 -9.440321793786693e-05 4.131091713482872e-05 1.2382691980726979e-05 4.131091713482872e-05 0.0005825685568246829" free_energy=-453.9716440846611 pbc="T T T"
Pb       0.01635850      -0.00750982       0.00820042      -0.00102875       0.00033921       0.00022044      -4.40202462
I       -3.10862366       5.40977449      -0.05761530      -0.00033906       0.00056252       0.00218375      -2.11344160
I        0.83600984       3.11216162       0.21439591       0.00053028      -0.00056506       0.00228489      -2.11190953
I        0.09738835      -0.23321038       3.25417252      -0.00486085      -0.00062483      -0.00103523      -2.12544448
Cs       3.26517506       3.06449300       3.26490835       0.00120688       0.00638596       0.00001727      -3.52708586
Pb       0.00992267      -0.00219207       6.48768395      -0.00256738       0.00146299       0.00046640      -4.39992651
I       -3.10764167       7.04407709       6.56223770      -0.00110858      -0.00075292       0.00039088      -2.11297213
I       -0.79156187       3.12399212       6.30763871      -0.00107333       0.00092807       0.00189405      -2.11234364
I       -0.01938269       0.20736393       9.75283257       0.00234350      -0.00186450      -0.00028223      -2.13691080
Cs       3.02781798       3.13238953       9.73710549       0.00017123      -0.00368219      -0.00258531      -3.52242813
Pb       0.01682379       6.22725129       0.02980395       0.00068565       0.00126489       0.00175450      -4.40153724
I        3.13372023       7.05544123       0.09617800       0.00070565       0.00208524       0.00180257      -2.10847919
I       -0.81040001       9.35675003      -0.12715576       0.00146166      -0.00417157       0.00062103      -2.11837329
I       -0.04451858       6.47087117       3.27940575       0.00301824       0.00156023       0.00045392      -2.12688784
Cs      -3.22847781       3.15442989       3.25420784      -0.00135966      -0.00134271       0.00218207      -3.52043287
Pb       0.01692263       6.24657448       6.52014289      -0.00101895       0.00035406       0.00286053      -4.39954312
I        3.13681393       5.42261217       6.44902515       0.00099231       0.00053752       0.00506062      -2.11472290
I        0.81459733       9.37565797       6.80887854      -0.00791383       0.00476627       0.01062484      -2.11737799
I        0.11939735       6.02073765       9.76666907      -0.00072227      -0.00580077       0.00298513      -2.12668940
Cs      -2.94082919       3.08490609       9.74267284      -0.00048986      -0.00376056       0.00253864      -3.51841310
Pb       0.03791215      -0.00391426      12.99425987      -0.00172513       0.00559007       0.00200850      -4.37227539
I       -3.07429264       5.42453438      12.91395075       0.00394395      -0.00199782       0.00306496      -2.11706181
I        0.87591325       3.10200235      13.18539724      -0.00799684       0.00804406       0.00112038      -2.11746144
I        0.14904328      -0.23358217      16.21860889      -0.00657971      -0.00081129       0.00284395      -2.12475823
Cs       3.31397099       3.07009023      16.24311480       0.00341841       0.00299183      -0.00260214      -3.52504525
Pb       0.05990130       0.01268692      19.47183490      -0.00031888       0.00020501      -0.00102691      -4.40083966
I       -3.06870715       7.04941132      19.60034600       0.00058313      -0.00012563       0.00079486      -2.11607220
I       -0.76889350       3.12454240      19.28163656      -0.00154561      -0.00001243      -0.00012801      -2.11057385
I       -0.01849414       0.23931043      22.71029332       0.00101071       0.00179843       0.00031605      -2.12600068
Cs       3.05180744       3.16048198      22.71883264       0.00038783      -0.00344416      -0.00020941      -3.52317345
Pb       0.05509319       6.22068410      13.01125905      -0.00154027       0.00556595      -0.00083337      -4.39569404
I        3.19101761       7.04780355      13.08347117      -0.00282785       0.00451484      -0.00062762      -2.12176904
I       -0.78838411       9.36233538      12.89329895      -0.00302724       0.00650099      -0.00618542      -2.11320745
I       -0.02421981       6.43061583      16.25082426      -0.00061929       0.00549826      -0.00257357      -2.12343145
Cs      -3.19905012       3.16820982      16.22593816      -0.00043854      -0.00467237      -0.00108069      -3.51888842
Pb       0.05858116       6.23741182      19.49613198       0.00061599      -0.00013199      -0.00006160      -4.40402443
I        3.17110471       5.40915893      19.41581267       0.00068638      -0.00300344       0.00285896      -2.10902315
I        0.86917863       9.36610863      19.67253731       0.00183677      -0.00079763      -0.00693991      -2.11545124
I        0.14439818       6.03125415      22.73774638       0.00005512       0.00087578       0.00140259      -2.12206493
Cs      -2.93783388       3.09658560      22.71719684      -0.00109172       0.00122229       0.00024127      -3.52189735
Pb      -6.23461466       6.23116560       0.00489353      -0.00105136      -0.00111957       0.00167296      -4.40414866
I       -9.36424361      11.65349959      -0.07952505      -0.00153034       0.00055519      -0.00232102      -2.11158004
I       -5.42194698       9.35366328       0.18722566      -0.00126673      -0.00029162      -0.00100615      -2.11267459
I       -6.14332745       6.00337772       3.24985196      -0.00032207      -0.00071331       0.00056665      -2.12280115
Cs      -3.00146546       9.26121122       3.23277762      -0.00095063      -0.00278582      -0.00073798      -3.52018948
Pb      -6.22760340       6.23743549       6.48202231      -0.00145058      -0.00030048       0.00247869      -4.39972900
I       -9.37726289      13.29811050       6.54233816      -0.00249798       0.00245457      -0.00364586      -2.10703590
I       -7.08194529       9.34112813       6.29444539      -0.00366110      -0.00027721       0.00126486      -2.10939609
I       -6.32704132       6.44935790       9.74098314       0.00127408       0.00360307       0.00133797      -2.13859524
Cs      -3.24444916       9.31735035       9.74944615       0.00400330       0.01481434      -0.00976501      -3.53498749
Pb      -6.24741017      12.47128391      -0.00069367      -0.00016830      -0.00020884       0.00033636      -4.40255676
I       -3.11368089      13.28696204       0.12248501      -0.00490575      -0.00235986      -0.00216312      -2.11913252
I       -7.06411613      15.59221434      -0.17870477       0.00067614       0.00070449      -0.00022741      -2.11303332
I       -6.36149960      12.65584764       3.23205079      -0.00420520      -0.00003521       0.00055978      -2.11238945
Cs      -9.48452402       9.40678957       3.23098073      -0.00352238       0.00031886      -0.00090633      -3.52581287
Pb      -6.26340973      12.45027495       6.45783925      -0.00208735      -0.00111204       0.00003497      -4.40604298
I       -3.15862573      11.58766791       6.33404605      -0.00174873      -0.00141204      -0.01226702      -2.09758423
I       -5.49172044      15.58641496       6.55087203       0.00437368      -0.00153907       0.00660580      -2.11604987
I       -6.26198035      12.25124026       9.73518928       0.01281553      -0.00012546       0.00598343      -2.11890888
Cs      -9.21729532       9.35604648       9.74863276      -0.00442807       0.00100164       0.00320305      -3.52394751
Pb      -6.19713355       6.25700031      12.98935508       0.00280059      -0.00060527      -0.00043723      -4.38861206
I       -9.17950231      11.73700561      12.99279270      -0.00020046      -0.00188774       0.00732141      -2.12306068
I       -5.35051344       9.40507691      13.18902637       0.00021900       0.00210596       0.00060398      -2.13166729
I       -6.10555977       6.03921695      16.22508805       0.00225568       0.00086953       0.00059677      -2.12942230
Cs      -2.98469634       9.22695459      16.32345328       0.00152642       0.00045739      -0.00053587      -3.51524481
Pb      -6.19668113       6.25448807      19.47775871       0.00110616      -0.00105604      -0.00032388      -4.40028227
I       -9.31186809      13.31243990      19.50935188       0.00055488      -0.00128127      -0.00620671      -2.11652546
I       -7.00333852       9.38052014      19.24235553       0.00382769      -0.00004976      -0.00265312      -2.11580799
I       -6.28750456       6.48643455      22.71094342       0.00057998      -0.00068968       0.00096935      -2.12217908
Cs      -3.18709855       9.41569839      22.74611496       0.00147337      -0.00179255       0.00148841      -3.52085162
Pb      -6.24702493      12.48312097      12.94134400      -0.02027332      -0.00399623       0.00690161      -4.17892292
I       -7.00839744      15.58806180      12.78086693      -0.00463913      -0.00192572      -0.00250419      -2.11662575
I       -6.09386718      12.77999259      16.17375824       0.01156738       0.00316995      -0.00055740      -2.13848003
Cs      -9.45921598       9.38214520      16.23423243      -0.00212939      -0.00574654       0.00356317      -3.51071548
Pb      -6.18479197      12.49670979      19.46444851       0.00214735       0.00076463       0.00149812      -4.39555861
I       -3.07257065      11.65616296      19.44223778       0.00095483      -0.00017558       0.00396552      -2.11085574
I       -5.38599722      15.61591816      19.70119603      -0.00007806       0.00137212       0.00445286      -2.11551480
I       -6.12053980      12.27557146      22.69113551      -0.00272293      -0.00176099      -0.00020273      -2.12395431
Cs      -9.18807322       9.34545667      22.70676466       0.00214361      -0.00081936      -0.00099505      -3.52238187
Pb       6.25237774       6.22791703       0.02071710      -0.00049144       0.00161335       0.00043621      -4.40621253
I        3.11517275      11.63112852      -0.00125579       0.00364077      -0.00083628       0.00121737      -2.11501504
I        7.07669891       9.34327799       0.22643151       0.00086379       0.00094609       0.00087586      -2.10862107
I        6.33904781       6.04947434       3.26388967      -0.00025651      -0.00164044       0.00106644      -2.11527213
Cs       9.50564991       9.30130946       3.28167900      -0.00178263       0.00011114       0.00059055      -3.51919987
Pb       6.24774711       6.24117922       6.47854233       0.00091502      -0.00090969       0.00213340      -4.38606789
I        3.06783381      13.27360105       6.79251282      -0.00556206      -0.00415097       0.01094161      -2.11599797
I        5.42583871       9.35268738       6.32353235      -0.00105850      -0.00236374       0.00389882      -2.11917059
I        6.26720685       6.38670917       9.76095795       0.00251364       0.00094939       0.00179562      -2.16173774
Cs       9.31051154       9.44679484       9.76639281       0.00389217      -0.00045916      -0.00082792      -3.51208720
Pb       6.24291620      12.45637983       0.04634613      -0.00282976       0.00021081       0.00136668      -4.40100538
I        9.36272829      13.27557171       0.12206290      -0.00123952       0.00177440      -0.00100411      -2.11345112
I        5.41647817      15.57120160      -0.15057092      -0.00296071      -0.00039724       0.00061447      -2.10838319
I        6.12932367      12.69222984       3.29865879      -0.00377529      -0.00031929       0.00087960      -2.13099350
Cs       2.98698402       9.38459932       3.28728396      -0.00695293       0.00085559       0.00617945      -3.51958834
Pb       6.21594085      12.47883375       6.54414834      -0.00223044      -0.00024744       0.00348203      -4.39890577
I        9.34101043      11.64951386       6.44441597      -0.00168226       0.00211717      -0.00057048      -2.11245691
I        7.06540162      15.57995733       6.74583402      -0.00286315      -0.00006001       0.00221107      -2.11473945
I        6.38737988      12.23892108       9.78337641       0.00257546      -0.00157211       0.00004834      -2.11764338
Cs       3.38845308       9.15702308       9.73575255       0.00203880      -0.00131150      -0.00011511      -3.48809444
Pb       6.31157700       6.22390762      13.03032604      -0.00118514       0.00064226       0.00119102      -4.38676197
I        2.98318160      11.72598622      12.72053663      -0.02403533       0.00904032      -0.00898903      -2.14207063
I        7.10007290       9.34818825      13.18978966      -0.00499702      -0.00361338       0.00081974      -2.12265395
I        6.35666290       6.00899940      16.25112778       0.00070917      -0.00465311       0.00136474      -2.12149191
Cs       9.53515190       9.31040942      16.26148195      -0.00046067      -0.00045904      -0.00151316      -3.51812443
Pb       6.28190586       6.25037580      19.49885702      -0.00030871       0.00143613       0.00088621      -4.40428641
I        3.15657850      13.30354399      19.56828593      -0.00000233       0.00107271      -0.00191408      -2.11470536
I        5.44977371       9.35918063      19.28549998      -0.00467887      -0.00084487      -0.00472911      -2.10853223
I        6.21365765       6.47721459      22.73090457       0.00094452       0.00556144       0.00118096      -2.12229132
Cs       9.28911135       9.40259876      22.73641264      -0.00157918      -0.00127277      -0.00050051      -3.52047538
Pb       6.27534016      12.46654799      13.00351434      -0.00165944       0.00002439       0.00001235      -4.36955454
I        9.39345586      13.23143988      13.09481429      -0.00741517      -0.00315745       0.00268623      -2.12546083
I        5.48971363      15.59014262      12.85233413       0.00250470       0.00271300       0.00043980      -2.11590640
I        6.15022155      12.67346187      16.24141952      -0.00783518      -0.00533438       0.00091496      -2.13026234
Cs       3.00292737       9.42858973      16.22078516      -0.00288336       0.00875442      -0.00530030      -3.51055356
Pb       6.27875609      12.47111845      19.50253801      -0.00167061      -0.00169966      -0.00115016      -4.39996432
I        9.40304408      11.65063302      19.41962970      -0.00072905      -0.00088842       0.00077954      -2.11462894
I        7.09545479      15.59217773      19.69394118      -0.00027268      -0.00142257      -0.00100288      -2.11206043
I        6.35929595      12.25323823      22.74506879      -0.00303912      -0.00040609       0.00019927      -2.12705127
Cs       3.29694099       9.33598599      22.74725158      -0.00229351       0.00266295      -0.00268182      -3.52319101
Pb       0.00661586      12.47224233       0.07837858       0.00073285      -0.00147712       0.01470299      -4.37821566
I       -3.12570349      17.88581897      -0.04411630      -0.00111958      -0.00026337       0.00115739      -2.11246630
I        0.82958115      15.58084326       0.25688601      -0.00115818       0.00354092      -0.00116267      -2.11445486
I        0.12714204      12.30808844       3.47304492      -0.00070576      -0.00048638      -0.00765183      -2.12862794
Cs       3.24399720      15.49664504       3.31943357      -0.00597579      -0.00862870       0.00454856      -3.52079565
Pb      -0.10254153      12.47773976       6.62462549      -0.01133407       0.00369367       0.02049118      -4.33177545
I       -3.11546485      19.51861060       6.62157668      -0.00044934       0.00494587      -0.00174623      -2.12662240
I       -0.84512089      15.59169821       6.35927864       0.00065371       0.00130971      -0.00896568      -2.11883557
I       -1.24745127      12.83851306      10.12032812       0.14710870      -0.02620503      -0.10522009      -2.12978892
Cs       3.13498822      15.77516323       9.78608024      -0.01658684      -0.00785697       0.00703418      -3.48611865
Pb      -0.00210523      18.70305188       0.03951966      -0.00044791      -0.00074245       0.00101361      -4.40374720
I        3.11719516      19.52242252       0.11126068      -0.00046161       0.00021774      -0.00072189      -2.10944911
I       -0.83045537      21.81652522      -0.16234874      -0.00110236       0.00095136      -0.00117339      -2.11132713
I       -0.09412361      18.92261809       3.28729411      -0.00154775       0.00346012      -0.00155455      -2.12378814
Cs      -3.21654412      15.63609583       3.25120439      -0.00253565      -0.00015604      -0.00195189      -3.52286041
Pb       0.01752256      18.71542174       6.51910800      -0.00003588       0.00272375      -0.00122063      -4.39443046
I        3.12161451      17.86505856       6.42933252      -0.00089570      -0.00137883       0.00206812      -2.11607410
I        0.81427262      21.82554201       6.72292389      -0.00061240       0.00363642       0.00106995      -2.10990518
I        0.11713600      18.50511217       9.77570179      -0.00119344       0.00487146       0.00215566      -2.13856507
Cs      -3.16016234      16.13055129       9.53630377      -0.00212191      -0.00720055       0.00585029      -3.47273699
Pb       0.02406669      12.46876401      12.99999983       0.00031344       0.00321537      -0.01557054      -4.13299566
I       -3.08302761      17.75383822      13.04576943       0.00199572      -0.00453359      -0.00107874      -2.14475443
I        0.88778903      15.56026800      13.18091825      -0.00080310       0.00002100       0.00011261      -2.11811844
I        0.02334780      12.31890959      16.23009588       0.00733934       0.00353878       0.00605043      -2.13841295
Cs       3.28553280      15.55725672      16.27416232      -0.00525252       0.00293634      -0.00217408      -3.51744739
Pb       0.03825348      12.47945005      19.52649936       0.00105087      -0.00013871       0.01149609      -4.38764759
I       -3.09034984      19.53996841      19.55008524       0.00069047       0.00048338      -0.00317791      -2.11369311
I       -0.77389051      15.59579064      19.35316133       0.00001982      -0.00008631       0.00737944      -2.11448264
I       -0.02160927      12.69117961      22.79950155       0.00456377      -0.00431008      -0.00110743      -2.12903387
Cs       3.04305995      15.64711682      22.74548617      -0.00255491      -0.00226320      -0.00037883      -3.52344542
Pb       0.02578561      18.67582893      13.02635658      -0.00078206       0.00597667       0.00038784      -4.39329591
I        3.14401937      19.53071612      13.08887906      -0.00140783      -0.00170526       0.00004083      -2.11917679
I       -0.76656372      21.80756256      12.82256830      -0.00051517       0.00162058       0.00387937      -2.11918036
I       -0.05882313      18.89832920      16.26181321       0.00402461      -0.00421331      -0.00051526      -2.12517918
Cs      -3.20914333      15.70458871      16.38673921       0.00187276       0.00337051       0.00395670      -3.45040454
Pb       0.03384104      18.72373622      19.51172680       0.00110850      -0.00051723       0.00261478      -4.40156056
I        3.15244637      17.89777435      19.42935391       0.00090010      -0.00220720       0.00052510      -2.11206420
I        0.85232758      21.83745440      19.69240821       0.00122720       0.00000194       0.00101180      -2.11454394
I        0.12302763      18.49836895      22.74869431      -0.00171942       0.00026661       0.00174455      -2.12154897
Cs      -2.95973522      15.56579638      22.75742749       0.00192997      -0.00249495       0.00339523      -3.52048536
159
Lattice="12.468885909578862 12.45567328789723 0.03660330624248233 -12.500938529614729 12.48755672392219 -0.009239974293740398 0.04511830023029706 0.02729054207635215 25.947711814671685" Properties=species:S:1:pos:R:3:forces:R:3:energies:R:1 energy=-453.8623993436737 stress="0.00010499382463070583 6.952445503683552e-05 -1.0213059510898139e-05 6.952445503683552e-05 -0.00016657557090989596 4.917494839347362e-05 -1.0213059510898139e-05 4.917494839347362e-05 0.0005530507976648426" free_energy=-453.8623993436737 pbc="T T T"
Pb       0.01641932      -0.00733875       0.00700420      -0.00114190       0.00031911       0.00002251      -4.40187370
I       -3.10869571       5.40966089      -0.05887240      -0.00036283       0.00033763       0.00145789      -2.11318741
I        0.83518471       3.11256297       0.21390928       0.00030784      -0.00064700       0.00178922      -2.11205696
I        0.09478249      -0.23337573       3.25230938      -0.00591538      -0.00068284      -0.00125890      -2.12499550
Cs       3.26717529       3.06490196       3.26146734       0.00172570       0.00704297      -0.00155175      -3.52668686
Pb       0.01258517      -0.00210834       6.48506616      -0.00165840       0.00082157      -0.00004660      -4.39931893
I       -3.10558806       7.04308086       6.55919779       0.00011028      -0.00097204       0.00052052      -2.11353020
I       -0.79301393       3.12365837       6.30729632      -0.00150620       0.00122292       0.00218093      -2.11345670
I       -0.01198225       0.20371150       9.75039161       0.00452968      -0.00239185      -0.00076122      -2.13921546
Cs       3.03338289       3.12278826       9.73470927       0.00030734      -0.00487005      -0.00334438      -3.52526082
Pb       0.01586937       6.22740545       0.02941867       0.00063451       0.00098435       0.00115382      -4.40180625
I        3.13358163       7.05369202       0.09209957       0.00079643       0.00185319       0.00104458      -2.10919880
I       -0.81223600       9.35809342      -0.12656158       0.00093921      -0.00315936       0.00113040      -2.11781925
I       -0.04654518       6.47065966       3.27815046       0.00284967       0.00136178       0.00069512      -2.12580331
Cs      -3.22754490       3.15384667       3.25198869      -0.00082707      -0.00157761       0.00186102      -3.52031812
Pb       0.01752033       6.24120194       6.51803492      -0.00025368      -0.00027686       0.00189541      -4.39848963
I        3.13770533       5.42106034       6.44803133       0.00040265      -0.00001994       0.00448045      -2.11422490
I        0.82648912       9.37773943       6.79262713      -0.00432704       0.00357546       0.00615759      -2.12088352
I        0.12214755       6.02194894       9.76405396       0.00043300      -0.00529771       0.00315479      -2.12705392
Cs      -2.93619282       3.08094278       9.74550590       0.00065413      -0.00497419       0.00218109      -3.51700730
Pb       0.05539988      -0.00885812      12.99528608       0.00220681       0.00498931       0.00201243      -4.37372761
I       -3.07063239       5.42435098      12.91261903       0.00542791      -0.00279459       0.00264221      -2.11780094
I        0.88551050       3.09535289      13.18418074      -0.00677930       0.00869658       0.00091952      -2.11633766
I        0.15184231      -0.23591722      16.21962675      -0.00697456      -0.00041215       0.00277014      -2.12465037
Cs       3.32366734       3.06464418      16.24096683       0.00463397       0.00242658      -0.00432108      -3.52581236
Pb       0.06098578       0.01254771      19.47167738      -0.00029564       0.00014570      -0.00141450      -4.40069672
I       -3.06819501       7.04820439      19.60089885       0.00062817      -0.00053392       0.00053772      -2.11616002
I       -0.76860117       3.12442071      19.28348369      -0.00143134      -0.00016537      -0.00021256      -2.11044861
I       -0.01790760       0.23914691      22.70984812       0.00158384       0.00189165      -0.00008014      -2.12599909
Cs       3.05224567       3.15994433      22.71807325       0.00056794      -0.00366775      -0.00059953      -3.52330380
Pb       0.06128742       6.21689459      13.01183560       0.00033785       0.00367245      -0.00001849      -4.39792182
I        3.19694066       7.03923106      13.08446995      -0.00310050       0.00361751      -0.00007187      -2.11966916
I       -0.76054417       9.35073495      12.90074216       0.00233253      -0.00214430       0.00376335      -2.10785605
I       -0.02275304       6.42324731      16.25141821      -0.00048984       0.00461825      -0.00343948      -2.12222596
Cs      -3.19697328       3.16652190      16.22506966       0.00022817      -0.00540609      -0.00091368      -3.51969624
Pb       0.05929602       6.23637487      19.49517160       0.00108418       0.00076744      -0.00035274      -4.40418515
I        3.17183035       5.40861863      19.41543188       0.00079194      -0.00330467       0.00214608      -2.10883231
I        0.86930704       9.36869767      19.66294965       0.00189400      -0.00288304      -0.00762945      -2.11609663
I        0.14507193       6.03291049      22.73744569       0.00034330       0.00140375       0.00094017      -2.12202103
Cs      -2.93745418       3.09651589      22.71697244      -0.00095355       0.00118690      -0.00016626      -3.52205074
Pb      -6.23378866       6.23187897       0.00322025      -0.00083451      -0.00113125       0.00103981      -4.40375639
I       -9.36357157      11.65457680      -0.08113534      -0.00135318       0.00073108      -0.00194471      -2.11226610
I       -5.42075422       9.35339248       0.18618723      -0.00121545      -0.00025207      -0.00112432      -2.11281287
I       -6.13912588       6.00178094       3.24787646       0.00090558      -0.00112021       0.00047308      -2.12309249
Cs      -3.00925805       9.26771739       3.24060828      -0.00167064      -0.00226686      -0.00086078      -3.52092632
Pb      -6.22452178       6.24023062       6.47625657      -0.00023307      -0.00014321       0.00110115      -4.39727156
I       -9.37619980      13.29849913       6.52295421      -0.00102696       0.00157172      -0.00632129      -2.10556932
I       -7.07936701       9.34022122       6.28372650      -0.00369752      -0.00017564       0.00024953      -2.10759598
I       -6.33116199       6.44378805       9.73948904       0.00039779       0.00326293       0.00092927      -2.14714846
Cs      -3.25534612       9.29157749       9.76463758      -0.00224017       0.00156638      -0.00874096      -3.53848836
Pb      -6.24631354      12.47045360      -0.00746673      -0.00010444      -0.00015247       0.00019764      -4.40245789
I       -3.11164730      13.28746012       0.11843145      -0.00386094      -0.00151436      -0.00262699      -2.11907536
I       -7.06300995      15.59209667      -0.17909514       0.00093347       0.00072210      -0.00085514      -2.11352355
I       -6.35048411      12.65389381       3.22515941      -0.00091809       0.00100716       0.00101235      -2.11271490
Cs      -9.48621211       9.40836870       3.22736374      -0.00385723       0.00062087      -0.00146234      -3.52630075
Pb      -6.26356841      12.44846687       6.45491254      -0.00418860      -0.00151481      -0.00023920      -4.40640399
I       -3.14598124      11.58558509       6.36736762      -0.00285745      -0.00399976      -0.01295057      -2.10343902
I       -5.49229114      15.58568696       6.55262107       0.00045484      -0.00212254       0.00199298      -2.11775969
I       -6.34820250      12.22949021       9.71696892       0.00500248       0.00078414       0.00482585      -2.10974473
Cs      -9.22721536       9.35946680       9.75441176      -0.00776796      -0.00052288       0.00368463      -3.52717923
Pb      -6.19227309       6.25606755      12.99321521       0.00336682      -0.00147341       0.00038033      -4.38623587
I       -9.15479759      11.74944512      13.01009170       0.00661503      -0.00107140       0.00798378      -2.11536813
I       -5.34505885       9.39956321      13.18943542       0.00023693       0.00276142       0.00168722      -2.13359097
I       -6.10420257       6.03930191      16.22563978       0.00318174       0.00109897       0.00015924      -2.12914964
Cs      -2.98529310       9.22348905      16.32298410       0.00169605       0.00051922       0.00073425      -3.51710704
Pb      -6.19649127       6.25480022      19.47803819       0.00141831      -0.00106907      -0.00055648      -4.40009648
I       -9.31040201      13.31180166      19.50676918       0.00014372      -0.00130167      -0.00728913      -2.11713850
I       -7.00288526       9.38085520      19.24019227       0.00422342      -0.00071587      -0.00298862      -2.11598030
I       -6.28794066       6.48738832      22.71051222       0.00043674      -0.00044137       0.00051470      -2.12259373
Cs      -3.18995076       9.41339253      22.74559170       0.00098953      -0.00268780       0.00152915      -3.52090378
Pb      -6.20837485      12.48682059      12.91197556      -0.02254457      -0.00429981       0.00582594      -4.20236869
I       -6.99592614      15.58910360      12.77475807      -0.00331232      -0.00241314      -0.00387393      -2.11602205
I       -6.07379054      12.78011430      16.16568069       0.01440269       0.00285932      -0.00254825      -2.13668758
Cs      -9.45461859       9.38779987      16.23055382      -0.00202296      -0.00599390       0.00421578      -3.51078430
Pb      -6.18282345      12.49756490      19.45288605       0.00392662       0.00045729       0.00119813      -4.39581746
I       -3.07097108      11.65368143      19.44654036      -0.00102022      -0.00094830       0.00648473      -2.10917213
I       -5.38672077      15.61650074      19.70120194      -0.00014651       0.00203906       0.00361330      -2.11584515
I       -6.12124267      12.27580170      22.68443142      -0.00340689      -0.00158924       0.00008960      -2.12317559
Cs      -9.18749988       9.34647101      22.70558193       0.00227041      -0.00069145      -0.00113779      -3.52225929
Pb       6.25265074       6.22786078       0.01879649      -0.00035948       0.00158562      -0.00014309      -4.40538199
I        3.11356127      11.63108767      -0.00338886       0.00274612      -0.00103368       0.00157852      -2.11539145
I        7.07604209       9.34335233       0.22482053       0.00077040       0.00087841       0.00091264      -2.10897914
I        6.33825752       6.05281120       3.26339029      -0.00023979      -0.00169284       0.00081511      -2.11682999
Cs       9.50630566       9.30125272       3.27912593      -0.00185287       0.00030559       0.00007793      -3.51880057
Pb       6.24646956       6.24170238       6.47827389      -0.00010981       0.00042682       0.00130605      -4.38398050
I        3.06808869      13.28414324       6.78318574      -0.00799300      -0.00297010       0.01070588      -2.11625021
I        5.42466985       9.35279288       6.32633498      -0.00115781      -0.00224669       0.00458327      -2.11843175
I        6.26236388       6.39605193       9.75970782       0.00089781       0.00379054       0.00176291      -2.16358157
Cs       9.31555374       9.45693108       9.76751451       0.00405184       0.00196278      -0.00006376      -3.51026558
Pb       6.24314691      12.45642991       0.04432291      -0.00272096       0.00017024       0.00108695      -4.40066603
I        9.36249109      13.27474152       0.12042070      -0.00130583       0.00159257      -0.00157796      -2.11352419
I        5.41755243      15.57146088      -0.15299142      -0.00283665      -0.00039328      -0.00019213      -2.10923461
I        6.13208765      12.69208748       3.29704561      -0.00354341      -0.00054801       0.00051104      -2.13117583
Cs       2.99826622       9.37461240       3.28009724      -0.00473783      -0.00025481       0.00535485      -3.51973382
Pb       6.22143221      12.47639438       6.54169120      -0.00339008      -0.00025910       0.00374642      -4.39801890
I        9.34249779      11.64812668       6.44189115      -0.00202865       0.00279331      -0.00000375      -2.11343260
I        7.06295789      15.57993537       6.74949695      -0.00395407       0.00045069       0.00341692      -2.11592943
I        6.38961556      12.24702854       9.78120583       0.00232772       0.00002199      -0.00048245      -2.11816333
Cs       3.38295430       9.16010576       9.74248736       0.00182334      -0.00034111      -0.00031966      -3.48733073
Pb       6.31635240       6.22202485      13.02932349      -0.00198568       0.00173459       0.00210213      -4.38723223
I        3.03237697      11.70423877      12.74713918      -0.02145145       0.00494474      -0.00886459      -2.14035233
I        7.11129742       9.34500014      13.18784441      -0.00308382      -0.00353252       0.00102832      -2.12141186
I        6.35725031       6.00980874      16.25007585       0.00038306      -0.00498224       0.00181543      -2.12142747
Cs       9.54023298       9.31001389      16.26240300       0.00000344      -0.00044210      -0.00211032      -3.51876184
Pb       6.28215688       6.25090560      19.49714963      -0.00023282       0.00152908       0.00124301      -4.40410356
I        3.15414946      13.30255457      19.55784083       0.00143428       0.00119302      -0.00340225      -2.11549268
I        5.44923460       9.35952089      19.28479316      -0.00444179      -0.00142589      -0.00509180      -2.10862198
I        6.21435228       6.47708687      22.72982210       0.00124490       0.00541512       0.00132634      -2.12240807
Cs       9.28921802       9.40282413      22.73571342      -0.00152579      -0.00120108      -0.00060270      -3.52037857
Pb       6.28594297      12.46099447      13.00580529      -0.00109805      -0.00035399       0.00001657      -4.37565310
I        9.41508968      13.22727014      13.09555721      -0.00421337      -0.00086694       0.00197492      -2.12369174
I        5.50340475      15.58765865      12.86707235       0.00525079       0.00337937       0.00289973      -2.11602003
I        6.16072591      12.67278579      16.24315042      -0.00603799      -0.00537178       0.00087207      -2.12825322
Cs       3.00410030       9.42494889      16.21745065      -0.00311332       0.00900013      -0.00531642      -3.51062238
Pb       6.27977304      12.47107685      19.50073714      -0.00241335      -0.00169500      -0.00148022      -4.40039760
I        9.40344396      11.65107928      19.42068507      -0.00006087      -0.00081201       0.00106826      -2.11466570
I        7.09473906      15.59235167      19.69473387      -0.00044189      -0.00093934      -0.00122909      -2.11193421
I        6.35791492      12.25355459      22.74429003      -0.00375929      -0.00063644       0.00055774      -2.12694934
Cs       3.29737255       9.33411395      22.74341019      -0.00262785       0.00230906      -0.00360418      -3.52280044
Pb       0.00548547      12.47255179       0.04879957       0.00092519      -0.00165387       0.01661303      -4.37255965
I       -3.12577719      17.88612991      -0.04426683      -0.00106639      -0.00025792       0.00124677      -2.11273433
I        0.82828933      15.57877896       0.25379329      -0.00128365       0.00278778      -0.00144863      -2.11470295
I        0.12597906      12.30624613       3.47781270      -0.00268291       0.00191763       0.01864566      -2.13350208
Cs       3.25185114      15.50369061       3.30915869      -0.00475897      -0.00817903       0.00298778      -3.52030107
Pb      -0.07969516      12.46877243       6.56082559      -0.00928971       0.00069071       0.00037015      -4.25934455
I       -3.11446265      19.51972228       6.62425535       0.00032822       0.00480435      -0.00098173      -2.13046673
I       -0.84018786      15.58188022       6.36374234      -0.00213140      -0.00035857      -0.00065666      -2.12504919
I       -1.73627637      12.84420507      10.47844216       0.08748873      -0.02163309      -0.09656900      -2.09347359
Cs       3.23169896      15.83145286       9.76891676       0.00675317       0.00493020       0.00338018      -3.47712497
Pb      -0.00219018      18.70299314       0.03800628      -0.00054377      -0.00071486       0.00032451      -4.40350359
I        3.11734971      19.52149471       0.11070639      -0.00039884       0.00006947      -0.00050540      -2.10998008
I       -0.82989445      21.81618041      -0.16351137      -0.00088936       0.00082885      -0.00135314      -2.11155071
I       -0.09668085      18.92254190       3.28611976      -0.00265206       0.00177023      -0.00052207      -2.12383327
Cs      -3.22180910      15.63984513       3.24998361      -0.00219594      -0.00027839      -0.00076571      -3.52092957
Pb       0.01987507      18.71696893       6.51771834       0.00077311       0.00300089      -0.00145423      -4.39139945
I        3.12323115      17.87261404       6.41217472      -0.00061822       0.00007991      -0.00105371      -2.11692116
I        0.81509707      21.82496470       6.71891763      -0.00149040       0.00117895      -0.00012853      -2.11014114
I        0.13811634      18.50661088       9.77295460       0.00219181       0.00530183       0.00195730      -2.13899320
Cs      -3.16810298      16.19883519       9.52031588      -0.00510876       0.01180978       0.00268169      -3.47207877
Pb       0.03374128      12.46496177      13.01816500       0.00581266       0.00093939      -0.00407527      -4.10348250
I       -3.07627664      17.75865438      13.05146066       0.00368978      -0.00243954       0.00104305      -2.14527999
I        0.91106814      15.55547895      13.16241130       0.00262095       0.00302378      -0.00602916      -2.11668967
I       -0.02840597      12.33285970      16.21585375      -0.00019003       0.00556267       0.00849777      -2.14195949
Cs       3.28883253      15.55952372      16.27209449      -0.00546905       0.00310066      -0.00293981      -3.51647190
Pb       0.03564178      12.48084291      19.52239244       0.00028865      -0.00038949       0.01031583      -4.38456098
I       -3.08973401      19.54021638      19.55014602       0.00095475       0.00061175      -0.00361514      -2.11402094
I       -0.77447014      15.59506928      19.35435170      -0.00043122       0.00247746       0.00847326      -2.11370578
I       -0.02055509      12.69102217      22.78983140       0.00536061      -0.00426374       0.00210828      -2.13212936
Cs       3.04576005      15.64797420      22.74192698      -0.00204288      -0.00249621      -0.00142950      -3.52326409
Pb       0.03298459      18.67127418      13.02478480       0.00228575       0.00239030       0.00057198      -4.39278214
I        3.14964607      19.53040669      13.09106647      -0.00038698      -0.00179841       0.00054206      -2.11997793
I       -0.75894269      21.80306833      12.82267327       0.00200460      -0.00200678       0.00316175      -2.11949833
I       -0.05454026      18.89472852      16.26083038       0.00558021      -0.00497880      -0.00138159      -2.12499101
Cs      -3.21048345      15.70249646      16.38584816       0.00277902       0.00277505       0.00426405      -3.45316514
Pb       0.03471491      18.72436061      19.51048148       0.00099156      -0.00172917       0.00290203      -4.40166514
I        3.15295416      17.89743176      19.43002659       0.00117534      -0.00219119      -0.00011000      -2.11211475
I        0.85331151      21.83718866      19.69167647       0.00128957      -0.00006665       0.00059747      -2.11445367
I        0.12281910      18.49826307      22.74787531      -0.00149599       0.00043170       0.00160524      -2.12118987
Cs      -2.96287251      15.56842164      22.75618048       0.00156041      -0.00167522       0.00277456      -3.52062260
159
Lattice="12.468885909578862 12.45567328789723 0.03660330624248233 -12.500938529614729 12.48755672392219 -0.009239974293740398 0.04511830023029706 0.02729054207635215 25.947711814671685" Properties=species:S:1:pos:R:3:forces:R:3:energies:R:1 energy=-453.8257488748237 stress="8.58634506760248e-05 7.321001433437682e-05 -1.555360327524962e-05 7.321001433437682e-05 -0.0001983079811620166 5.416413547084597e-05 -1.555360327524962e-05 5.416413547084597e-05 0.0005221911643057336" free_energy=-453.8257488748237 pbc="T T T"
Pb       0.01661589      -0.00717426       0.00614586      -0.00105973       0.00029624      -0.00020833      -4.40189518
I       -3.10864517       5.40939666      -0.06004238      -0.00031513       0.00020848       0.00106188      -2.11291554
I        0.83474760       3.11291576       0.21325839       0.00010669      -0.00045368       0.00146146      -2.11210357
I        0.09344767      -0.23334886       3.25101219      -0.00637360      -0.00078148      -0.00133365      -2.12459395
Cs       3.26837114       3.06566542       3.25874029       0.00221318       0.00749436      -0.00261694      -3.52624044
Pb       0.01619839      -0.00133708       6.48345346      -0.00102911       0.00082608      -0.00046986      -4.39870768
I       -3.10408546       7.04458622       6.55855696       0.00072984      -0.00063036       0.00076326      -2.11431868
I       -0.79363661       3.12420558       6.30695001      -0.00103158       0.00152898       0.00221873      -2.11426582
I       -0.00619638       0.20209820       9.74820806       0.00638484      -0.00244800      -0.00152754      -2.14035324
Cs       3.03722158       3.11673889       9.73364668       0.00089073      -0.00581792      -0.00323203      -3.52762355
Pb       0.01504039       6.22797032       0.02850462       0.00049825       0.00093640       0.00065651      -4.40209983
I        3.13349890       7.05260080       0.08947733       0.00075132       0.00160711       0.00048275      -2.10968820
I       -0.81393212       9.35862049      -0.12852691       0.00060221      -0.00244732       0.00078548      -2.11664542
I       -0.04842968       6.47170550       3.27696702       0.00242214       0.00179368       0.00067254      -2.12531401
Cs      -3.22727196       3.15378092       3.25057745      -0.00048734      -0.00164945       0.00159370      -3.52039910
Pb       0.01794638       6.23836618       6.51612889      -0.00009399      -0.00067037       0.00134218      -4.39767295
I        3.13842699       5.42046376       6.44742190      -0.00002841      -0.00005387       0.00411972      -2.11410673
I        0.83273971       9.38194032       6.78558233      -0.00263417       0.00303212       0.00507630      -2.12148734
I        0.12375919       6.02201246       9.76169005       0.00093971      -0.00497182       0.00247905      -2.12679267
Cs      -2.93508121       3.07887009       9.74748339       0.00104325      -0.00567912       0.00183995      -3.51648920
Pb       0.07394648      -0.01240591      12.99539224       0.00893997       0.00368426       0.00192930      -4.37512982
I       -3.06805732       5.42354153      12.91153720       0.00596289      -0.00340566       0.00216382      -2.11814793
I        0.89298730       3.09181207      13.18386348      -0.00479765       0.00825043       0.00088331      -2.11567777
I        0.15448156      -0.23731270      16.22015481      -0.00670535      -0.00025911       0.00255987      -2.12473668
Cs       3.33201450       3.05958776      16.23801895       0.00650237       0.00126021      -0.00604342      -3.52618941
Pb       0.06198016       0.01254679      19.47125592      -0.00001409       0.00015700      -0.00175710      -4.40066086
I       -3.06788272       7.04771041      19.60042739       0.00077597      -0.00079660       0.00038333      -2.11612607
I       -0.76843301       3.12458601      19.28374677      -0.00128233      -0.00023602      -0.00032262      -2.11033456
I       -0.01716228       0.23930457      22.70925538       0.00210606       0.00198488      -0.00021206      -2.12603166
Cs       3.05268811       3.15957733      22.71710137       0.00073171      -0.00385636      -0.00103352      -3.52335891
Pb       0.06547150       6.21364361      13.01091395       0.00188260       0.00246117       0.00003167      -4.39990646
I        3.19996057       7.03275272      13.08462143      -0.00295600       0.00210023       0.00008898      -2.11785991
I       -0.73923604       9.34288108      12.89639265       0.00871162      -0.00681274       0.00391530      -2.10443888
I       -0.02236962       6.42066149      16.25065285      -0.00063985       0.00429240      -0.00377060      -2.12145263
Cs      -3.19587636       3.16532013      16.22360576       0.00072487      -0.00592909      -0.00093772      -3.51997326
Pb       0.05962819       6.23587159      19.49346571       0.00126240       0.00075520      -0.00091364      -4.40421697
I        3.17221695       5.40823767      19.41395766       0.00077110      -0.00348608       0.00152470      -2.10865330
I        0.86948736       9.37091038      19.65445537       0.00179315      -0.00292211      -0.00949692      -2.11703137
I        0.14591342       6.03422415      22.73637921       0.00056292       0.00172191       0.00057007      -2.12210936
Cs      -2.93715892       3.09657397      22.71662911      -0.00081395       0.00113213      -0.00053002      -3.52216914
Pb      -6.23292720       6.23255266       0.00261218      -0.00067416      -0.00102010       0.00067525      -4.40361404
I       -9.36284437      11.65516852      -0.08175044      -0.00111704       0.00084506      -0.00149838      -2.11266779
I       -5.41905977       9.35324200       0.18678025      -0.00095788      -0.00036320      -0.00084965      -2.11277460
I       -6.13663719       6.00110518       3.24683547       0.00116775      -0.00128699       0.00029660      -2.12335373
Cs      -3.01401601       9.27661284       3.24914719      -0.00250215      -0.00044654       0.00080220      -3.52091365
Pb      -6.22315989       6.24061812       6.47519351       0.00025135      -0.00028521       0.00094478      -4.39734796
I       -9.37282755      13.29895808       6.50949411      -0.00024767       0.00099378      -0.00894680      -2.10462221
I       -7.07481454       9.33998729       6.27667463      -0.00285449      -0.00083639      -0.00085935      -2.10658244
I       -6.33200294       6.44212281       9.73804076       0.00016183       0.00310159       0.00047906      -2.14768607
Cs      -3.25598497       9.28265372       9.77138962      -0.00283468      -0.00309435      -0.00913078      -3.53748769
Pb      -6.24491570      12.46977289      -0.01288706       0.00019733      -0.00016229      -0.00016914      -4.40253623
I       -3.10997572      13.28763736       0.11326845      -0.00268397      -0.00122165      -0.00385213      -2.11871901
I       -7.06229451      15.59190314      -0.17979192       0.00114343       0.00079553      -0.00133425      -2.11383563
I       -6.33955504      12.65359776       3.22013641       0.00231336       0.00130872      -0.00029998      -2.11330997
Cs      -9.48648483       9.40907691       3.22541335      -0.00360518       0.00080903      -0.00167066      -3.52630725
Pb      -6.26260937      12.44815423       6.45390141      -0.00336611      -0.00208023      -0.00083004      -4.40671673
I       -3.12732897      11.59508692       6.40608669       0.00040275      -0.00190509      -0.00292522      -2.11143443
I       -5.49074021      15.58566064       6.55505085      -0.00116889      -0.00176879       0.00018632      -2.11850606
I       -6.40333918      12.21895409       9.69796196      -0.00808524       0.00005560       0.00150121      -2.09943753
Cs      -9.23391313       9.35945783       9.75934695      -0.00964479      -0.00153102       0.00465456      -3.52942167
Pb      -6.18931174       6.25550912      12.99270623       0.00321636      -0.00251297       0.00020036      -4.38696849
I       -9.12987034      11.76224716      13.01860531       0.01661971       0.00279160       0.00742939      -2.10951459
I       -5.34069243       9.39120508      13.18581747       0.00024874       0.00226220       0.00152242      -2.13132435
I       -6.10335336       6.03917002      16.22545487       0.00363252       0.00062611      -0.00002007      -2.12927520
Cs      -2.98719771       9.22057341      16.32052383       0.00063383       0.00003047       0.00105898      -3.51850372
Pb      -6.19638624       6.25516521      19.47741029       0.00150687      -0.00110336      -0.00085281      -4.40007710
I       -9.30912059      13.31145114      19.50435896       0.00008026      -0.00137030      -0.00811638      -2.11750874
I       -7.00280067       9.38106495      19.23817073       0.00446631      -0.00102133      -0.00339571      -2.11604260
I       -6.28821464       6.48816808      22.70999269       0.00039992      -0.00021968       0.00031707      -2.12286719
Cs      -3.19237018       9.41195274      22.74475267       0.00041407      -0.00327898       0.00130720      -3.52107420
Pb      -6.15930484      12.49075587      12.88184593      -0.01138199      -0.00330111      -0.00203800      -4.24116461
I       -6.98239639      15.59079701      12.76866462      -0.00023625      -0.00332915      -0.00528400      -2.11575902
I       -6.05746459      12.77965762      16.16051801       0.01824475       0.00239968      -0.00495976      -2.13539801
Cs      -9.45008997       9.39390483      16.22576794      -0.00118665      -0.00467243       0.00325466      -3.51089087
Pb      -6.18086920      12.49825588      19.44232472       0.00485975       0.00059322      -0.00104078      -4.39635919
I       -3.06915829      11.65135255      19.44788338      -0.00088900      -0.00155231       0.00732885      -2.10817933
I       -5.38716390      15.61704089      19.70118045      -0.00001857       0.00242929       0.00331622      -2.11605268
I       -6.12183013      12.27564357      22.67940192      -0.00380827      -0.00158374      -0.00002835      -2.12250679
Cs      -9.18689568       9.34734282      22.70456126       0.00236877      -0.00045688      -0.00133729      -3.52216791
Pb       6.25273637       6.22775069       0.01745166      -0.00021974       0.00149825      -0.00033807      -4.40483374
I        3.11331508      11.63072815      -0.00797376       0.00221847      -0.00119249       0.00081478      -2.11491770
I        7.07569595       9.34324609       0.22379464       0.00070165       0.00086323       0.00087347      -2.10921289
I        6.33786798       6.05359440       3.26288471      -0.00034351      -0.00153403       0.00053148      -2.11803389
Cs       9.50661842       9.30078550       3.27743812      -0.00177892       0.00036112      -0.00032613      -3.51863089
Pb       6.24657889       6.24205363       6.47865932      -0.00028197       0.00080143       0.00120178      -4.38339024
I        3.07269263      13.29015899       6.76805766      -0.00566189      -0.00138402       0.00617331      -2.11819855
I        5.42474099       9.35269105       6.32825317      -0.00088210      -0.00197720       0.00459613      -2.11801237
I        6.26213354       6.40023501       9.75846128       0.00128211       0.00482105       0.00119994      -2.16328360
Cs       9.31808386       9.46072953       9.76820111       0.00394109       0.00261078       0.00071124      -3.50977094
Pb       6.24321670      12.45638905       0.04285403      -0.00241471       0.00015406       0.00052371      -4.40070583
I        9.36264676      13.27429308       0.11909009      -0.00131832       0.00143203      -0.00197847      -2.11345360
I        5.41839116      15.57173439      -0.15480587      -0.00266518      -0.00042071      -0.00080060      -2.10986326
I        6.13454839      12.69149910       3.29556600      -0.00296764      -0.00078307      -0.00014753      -2.13091904
Cs       3.00597606       9.36790484       3.27532460      -0.00261428      -0.00168341       0.00444280      -3.51985852
Pb       6.22955382      12.47423148       6.53969554      -0.00150921      -0.00070931       0.00352589      -4.39767814
I        9.34622243      11.64578569       6.44074600      -0.00096470       0.00277268       0.00033190      -2.11444111
I        7.06378331      15.57932085       6.74992434      -0.00363362       0.00043002       0.00326605      -2.11542767
I        6.38987240      12.24984959       9.77888402       0.00249400       0.00045079      -0.00179692      -2.11796697
Cs       3.38259297       9.16118253       9.74829765       0.00200731       0.00022109      -0.00008112      -3.48701317
Pb       6.31990578       6.22048816      13.02787898      -0.00199240       0.00196765       0.00191514      -4.38891736
I        3.07952516      11.68335355      12.77532943      -0.00738637      -0.00222420      -0.00315906      -2.13642390
I        7.11856982       9.34371635      13.18672113      -0.00055598      -0.00347143       0.00137234      -2.11950121
I        6.35733400       6.01080079      16.24963063      -0.00001458      -0.00505618       0.00193097      -2.12159919
Cs       9.54324079       9.31030099      16.26264609       0.00036720      -0.00025858      -0.00264984      -3.51942156
Pb       6.28236791       6.25110225      19.49602102      -0.00011731       0.00152487       0.00114247      -4.40400390
I        3.15243066      13.30212429      19.54803044       0.00127749       0.00127918      -0.00596096      -2.11622795
I        5.44937041       9.35982891      19.28452866      -0.00416156      -0.00159457      -0.00515648      -2.10879854
I        6.21440875       6.47708400      22.72907474       0.00138288       0.00528053       0.00148811      -2.12246258
Cs       9.28919902       9.40306196      22.73527961      -0.00148721      -0.00110586      -0.00074426      -3.52033926
Pb       6.29616612      12.45957006      13.00715868       0.00097113      -0.00050390       0.00007243      -4.38194046
I        9.43544907      13.22514044      13.09568278       0.00127463       0.00113187       0.00135504      -2.12186670
I        5.50700241      15.58575251      12.86846378       0.00525265       0.00337805       0.00222425      -2.11567603
I        6.16988533      12.67398483      16.24451299      -0.00366005      -0.00441779       0.00115708      -2.12667361
Cs       3.00713347       9.41965521      16.21609278      -0.00219003       0.00782354      -0.00518077      -3.51031551
Pb       6.28066041      12.47133930      19.49922488      -0.00224240      -0.00155795      -0.00215557      -4.40077800
I        9.40391924      11.65161104      19.42156085       0.00049877      -0.00077227       0.00119410      -2.11463083
I        7.09427324      15.59264343      19.69517770      -0.00052264      -0.00062244      -0.00122004      -2.11174802
I        6.35703356      12.25390603      22.74341734      -0.00416127      -0.00063772       0.00075964      -2.12672120
Cs       3.29711787       9.33243881      22.74015466      -0.00282519       0.00196275      -0.00444650      -3.52255380
Pb       0.00556920      12.47199970       0.02755868       0.00090942      -0.00160218       0.01098573      -4.37199094
I       -3.12573510      17.88657322      -0.04481054      -0.00091730      -0.00014591       0.00119362      -2.11298449
I        0.82744048      15.57763654       0.24975770      -0.00132839       0.00203977      -0.00222910      -2.11456097
I        0.12617548      12.29724291       3.44821937      -0.00258868       0.00048905       0.01275684      -2.13797694
Cs       3.25740979      15.51031511       3.30154337      -0.00311314      -0.00627442       0.00142725      -3.52013801
Pb      -0.04899456      12.46327278       6.50008040      -0.00040091      -0.00081699      -0.01896587      -4.21016976
I       -3.11282477      19.51864025       6.62531740       0.00072604       0.00416181      -0.00115245      -2.13169802
I       -0.83159236      15.57532639       6.35323930      -0.00014461      -0.00063593      -0.00221468      -2.12869874
I       -2.14449548      12.87510484      10.87082054      -0.02220114      -0.01085545       0.00044536      -2.08227674
Cs       3.24140089      15.83378561       9.76686540       0.00809443       0.00461708       0.00262501      -3.47561236
Pb      -0.00191074      18.70281087       0.03620772      -0.00044878      -0.00058319      -0.00014748      -4.40339535
I        3.11765172      19.52114540       0.11008050      -0.00030943       0.00005055      -0.00047984      -2.11030154
I       -0.82944010      21.81609362      -0.16478517      -0.00063957       0.00070254      -0.00152156      -2.11153947
I       -0.09701309      18.92477490       3.28455387      -0.00240181       0.00139254      -0.00067174      -2.12380341
Cs      -3.22713056      15.64198439       3.24737032      -0.00276607      -0.00017000      -0.00100746      -3.51930749
Pb       0.02291500      18.71911245       6.51534449       0.00137260       0.00257210      -0.00218520      -4.38982366
I        3.12463115      17.87374773       6.40822090       0.00003332      -0.00005885      -0.00084713      -2.11639918
I        0.81693223      21.82485958       6.71664926      -0.00136951       0.00060732      -0.00076302      -2.11068466
I        0.14532063      18.50601087       9.77050274       0.00265759       0.00544544       0.00159227      -2.14032083
Cs      -3.16484519      16.21904368       9.51135535      -0.00142690       0.01906205      -0.00137187      -3.47052348
Pb       0.04659268      12.45951554      13.02924007       0.01204241      -0.00167612       0.00751595      -4.08836846
I       -3.07198093      17.76860099      13.05323845       0.00443347       0.00003554       0.00018005      -2.14233175
I        0.91785944      15.55159415      13.15440682       0.00319193       0.00363163      -0.00814663      -2.11780119
I       -0.07301978      12.34395823      16.18300837      -0.01177749       0.00839453      -0.00262677      -2.14885950
Cs       3.29309904      15.56287659      16.26882149      -0.00423646       0.00396369      -0.00398160      -3.51510627
Pb       0.03378793      12.48219890      19.51848802      -0.00021964      -0.00012574       0.00806440      -4.37983307
I       -3.08928548      19.54050885      19.55034618       0.00115767       0.00074770      -0.00395539      -2.11418670
I       -0.77503466      15.59458380      19.35288921      -0.00044364       0.00304977       0.00792963      -2.11334218
I       -0.02032019      12.69103875      22.76939512       0.00589248      -0.00449289       0.00083906      -2.13406378
Cs       3.04780050      15.64816078      22.73887190      -0.00165992      -0.00268556      -0.00231478      -3.52317054
Pb       0.03683346      18.67147303      13.02377430       0.00341503       0.00171815       0.00081953      -4.39237437
I        3.15308912      19.53074301      13.09306721       0.00023237      -0.00219905       0.00076632      -2.12051942
I       -0.75349034      21.80077117      12.82192019       0.00383941      -0.00325910       0.00258202      -2.12008367
I       -0.05211236      18.89306933      16.25953490       0.00672093      -0.00485758      -0.00156483      -2.12443267
Cs      -3.21222444      15.70255251      16.38372521       0.00261775       0.00294071       0.00347118      -3.45625528
Pb       0.03541835      18.72500640      19.50894613       0.00107813      -0.00192995       0.00288593      -4.40187021
I        3.15325373      17.89703902      19.42968185       0.00127250      -0.00226714      -0.00049351      -2.11204048
I        0.85427002      21.83704569      19.69051944       0.00144323      -0.00000874       0.00025526      -2.11417358
I        0.12287653      18.49829519      22.74648709      -0.00129697       0.00045319       0.00154552      -2.12096172
Cs      -2.96457177      15.57026355      22.75485949       0.00134887      -0.00114212       0.00206472      -3.52072892
159
Lattice="12.468885909578862 12.45567328789723 0.03660330624248233 -12.500938529614729 12.48755672392219 -0.009239974293740398 0.04511830023029706 0.02729054207635215 25.947711814671685" Properties=species:S:1:pos:R:3:forces:R:3:energies:R:1 energy=-453.8774081023668 stress="0.00010500203222743003 7.625526721096429e-05 -2.0383400299757037e-05 7.625526721096429e-05 -0.0001769085851828961 5.2044298197152015e-05 -2.0383400299757037e-05 5.2044298197152015e-05 0.0005692834240417734" free_energy=-453.8774081023668 pbc="T T T"
Pb       0.01699137      -0.00720009       0.00533360      -0.00085911       0.00023334      -0.00035951      -4.40188794
I       -3.10855837       5.40920190      -0.06142619      -0.00023041       0.00004729       0.00033165      -2.11261933
I        0.83424779       3.11328967       0.21199966      -0.00016350      -0.00027969       0.00111126      -2.11217006
I        0.09246745      -0.23388619       3.24971031      -0.00700416      -0.00098742      -0.00153261      -2.12421514
Cs       3.26869480       3.06740293       3.25618453       0.00264979       0.00809928      -0.00374651      -3.52587960
Pb       0.01882205      -0.00150333       6.48239467      -0.00076131       0.00082598      -0.00067104      -4.39840845
I       -3.10235185       7.05302758       6.56785032       0.00099377      -0.00058080       0.00072194      -2.11516998
I       -0.79541732       3.12409017       6.30621968      -0.00066704       0.00133840       0.00220111      -2.11474358
I       -0.00017360       0.20166327       9.74585031       0.00814841      -0.00263294      -0.00284443      -2.14100407
Cs       3.03909527       3.11234311       9.73476925       0.00122933      -0.00668508      -0.00362540      -3.53010847
Pb       0.01434858       6.22864047       0.02682451       0.00032721       0.00089571       0.00064493      -4.40214861
I        3.13345184       7.05181390       0.08738529       0.00061780       0.00138249       0.00026955      -2.11012318
I       -0.81570239       9.35928368      -0.13061743       0.00022624      -0.00185599       0.00082719      -2.11583320
I       -0.05240061       6.47269045       3.27559061       0.00182015       0.00216734       0.00034680      -2.12534093
Cs      -3.22745127       3.15347266       3.24926005      -0.00012476      -0.00179392       0.00125383      -3.51998127
Pb       0.01754606       6.23662729       6.51507279       0.00004552      -0.00110490       0.00134201      -4.39784978
I        3.13832407       5.42027140       6.44716251       0.00007753      -0.00033955       0.00347405      -2.11354641
I        0.83993157       9.38304864       6.78029096      -0.00075785       0.00207750       0.00487471      -2.12148813
I        0.12704058       6.01821608       9.75932514       0.00140743      -0.00532862       0.00175393      -2.12502863
Cs      -2.93436166       3.07722462       9.75024501       0.00177367      -0.00657588       0.00200001      -3.51627550
Pb       0.09878730      -0.01739584      12.99505621       0.01342736       0.00321562       0.00182811      -4.37856163
I       -3.06537778       5.42454467      12.91039480       0.00651950      -0.00441884       0.00148343      -2.11799288
I        0.89854108       3.09098592      13.18582360      -0.00382978       0.00909131       0.00096243      -2.11539701
I        0.15744749      -0.23761154      16.22070225      -0.00697000      -0.00049904       0.00327594      -2.12464703
Cs       3.34260249       3.05145860      16.23214992       0.00942835      -0.00051020      -0.00763505      -3.52583333
Pb       0.06367257       0.01268696      19.47028654       0.00066991       0.00027597      -0.00235377      -4.40066458
I       -3.06767646       7.04735136      19.59900540       0.00105911      -0.00080128      -0.00003082      -2.11574701
I       -0.76748589       3.12526224      19.28205432      -0.00114188      -0.00001583      -0.00049779      -2.11035885
I       -0.01585640       0.23968446      22.70858044       0.00280840       0.00212418      -0.00052931      -2.12622442
Cs       3.05317361       3.15963467      22.71490179       0.00097041      -0.00404660      -0.00189239      -3.52322969
Pb       0.06979354       6.20953985      13.00728792       0.00216431       0.00260429      -0.00080288      -4.40104786
I        3.20302744       7.02589387      13.08400041      -0.00307328       0.00201458       0.00016879      -2.11690371
I       -0.72398416       9.34054096      12.87107112       0.01017533      -0.00375841      -0.00424129      -2.10390034
I       -0.02372379       6.42650360      16.24747084      -0.00086802       0.00448636      -0.00410776      -2.12152390
Cs      -3.19436047       3.16386472      16.22066877       0.00113826      -0.00659205      -0.00156481      -3.52051502
Pb       0.05991629       6.23604894      19.48981621       0.00141055       0.00045638      -0.00137445      -4.40399936
I        3.17282177       5.40784013      19.40911924       0.00078472      -0.00358716       0.00055408      -2.10859303
I        0.87023064       9.37357225      19.64631407       0.00188496      -0.00238630      -0.01150768      -2.11813922
I        0.14712351       6.03637107      22.73391512       0.00087024       0.00187071       0.00024046      -2.12247317
Cs      -2.93675035       3.09679106      22.71577795      -0.00045260       0.00110558      -0.00091803      -3.52218836
Pb      -6.23212625       6.23336537       0.00220079      -0.00045329      -0.00080726       0.00039578      -4.40340151
I       -9.36181563      11.65554196      -0.08260424      -0.00095854       0.00093420      -0.00125175      -2.11296850
I       -5.41721308       9.35333641       0.18760775      -0.00062166      -0.00043828      -0.00058853      -2.11268365
I       -6.13287541       6.00156248       3.24653234       0.00187220      -0.00144355      -0.00019852      -2.12395004
Cs      -3.01781063       9.28287495       3.25799692      -0.00308960       0.00165343       0.00223969      -3.52037797
Pb      -6.22017649       6.24164562       6.47586766       0.00065537      -0.00009323       0.00090782      -4.39781242
I       -9.37101638      13.30068487       6.49740167      -0.00051252       0.00101547      -0.01179794      -2.10351243
I       -7.07084469       9.34005362       6.27006419      -0.00223333      -0.00168902      -0.00172391      -2.10516624
I       -6.33149262       6.44429085       9.73684321      -0.00010067       0.00305054      -0.00005059      -2.14634150
Cs      -3.26069546       9.30014410       9.77583104      -0.00217357       0.00357742      -0.00665645      -3.53156337
Pb      -6.24323189      12.46950156      -0.01945484       0.00044705      -0.00017072      -0.00089847      -4.40275247
I       -3.10808266      13.28871303       0.10857700      -0.00167452      -0.00086677      -0.00463242      -2.11841569
I       -7.06220475      15.59160968      -0.18158673       0.00118937       0.00082761      -0.00183689      -2.11373264
I       -6.32958416      12.65541790       3.21440033       0.00472355       0.00140052      -0.00243707      -2.11354555
Cs      -9.48684499       9.40911927       3.22376308      -0.00356922       0.00088125      -0.00185896      -3.52599489
Pb      -6.26440304      12.44874230       6.44971875      -0.00279710      -0.00219487      -0.00140931      -4.40687535
I       -3.11381003      11.60874977       6.44092951       0.00300378       0.00036801       0.00700166      -2.11758969
I       -5.48849806      15.58520236       6.55920270      -0.00166374      -0.00097012       0.00035351      -2.11843775
I       -6.45229280      12.20991632       9.67784205      -0.01741388      -0.00053119       0.00119214      -2.09161310
Cs      -9.24317435       9.35888651       9.76670285      -0.01237641      -0.00281452       0.00586932      -3.53120983
Pb      -6.18667947       6.25634287      12.99105657       0.00364974      -0.00282360      -0.00031180      -4.38843381
I       -9.11213066      11.77772934      13.02427541       0.01677117       0.00363346       0.00743454      -2.10398202
I       -5.33659497       9.38508117      13.17637710      -0.00032214       0.00316432      -0.00018540      -2.12678327
I       -6.10259492       6.03900325      16.22468909       0.00420855       0.00073400      -0.00013338      -2.12949802
Cs      -2.99060371       9.21790247      16.31398947      -0.00044103      -0.00000820       0.00073927      -3.51993277
Pb      -6.19668964       6.25574506      19.47611461       0.00159565      -0.00091965      -0.00131130      -4.40024727
I       -9.30655055      13.31122764      19.49976382       0.00084668      -0.00171776      -0.00926145      -2.11814959
I       -7.00308670       9.38151254      19.23461322       0.00474250      -0.00093412      -0.00406122      -2.11609495
I       -6.28871908       6.48901154      22.70940083       0.00032929       0.00015052       0.00004607      -2.12329407
Cs      -3.19475140       9.41109512      22.74315342       0.00012691      -0.00380370       0.00137144      -3.52121885
Pb      -6.08921696      12.49870584      12.84326000       0.00804998      -0.00105286      -0.01234950      -4.30015171
I       -6.97060597      15.59455783      12.76286811       0.00170698      -0.00526955      -0.00653599      -2.11430951
I       -6.02844736      12.77837059      16.15458307       0.02408932       0.00186957      -0.00746943      -2.13517359
Cs      -9.44381477       9.40412444      16.21635506      -0.00038973      -0.00342022       0.00195523      -3.51045614
Pb      -6.17697513      12.49912286      19.42844449       0.00554938       0.00070123      -0.00232861      -4.39659318
I       -3.06562973      11.64736296      19.44702175       0.00011133      -0.00218472       0.00718535      -2.10797856
I       -5.38509041      15.61726334      19.69828509      -0.00005966       0.00255280       0.00329821      -2.11586248
I       -6.12103583      12.27665993      22.67329684      -0.00419088      -0.00184922      -0.00062454      -2.12189850
Cs      -9.18631020       9.34833326      22.70277445       0.00254168      -0.00016723      -0.00160684      -3.52182803
Pb       6.25297745       6.22712754       0.01614208      -0.00015298       0.00124394      -0.00009301      -4.40458320
I        3.11289002      11.63008592      -0.01268717       0.00193566      -0.00135771       0.00046784      -2.11468978
I        7.07536726       9.34290856       0.22349225       0.00066005       0.00091609       0.00083609      -2.10945769
I        6.33771239       6.05175106       3.26188860      -0.00048129      -0.00141257       0.00060271      -2.11898123
Cs       9.50702847       9.29921246       3.27703495      -0.00154914      -0.00009590      -0.00036943      -3.51858841
Pb       6.24734561       6.24098244       6.47948977       0.00001603       0.00055727       0.00191653      -4.38436461
I        3.07727862      13.29456665       6.75684242      -0.00402379      -0.00002160       0.00373264      -2.11987456
I        5.42603333       9.35215439       6.33036267      -0.00082689      -0.00134082       0.00479271      -2.11754701
I        6.26597176       6.40072992       9.75660465       0.00254808       0.00519691       0.00068345      -2.16103718
Cs       9.31904632       9.45681319       9.76842482       0.00402054       0.00161289       0.00096066      -3.51022310
Pb       6.24327120      12.45623734       0.04165161      -0.00210769       0.00016038       0.00034816      -4.40076661
I        9.36288499      13.27387333       0.11794868      -0.00137820       0.00114348      -0.00253191      -2.11340091
I        5.41921354      15.57208569      -0.15604911      -0.00242921      -0.00052743      -0.00109345      -2.11030984
I        6.13612802      12.69085665       3.29441584      -0.00255850      -0.00078386       0.00017721      -2.13082220
Cs       3.01270250       9.36293727       3.27197511      -0.00146960      -0.00244736       0.00398063      -3.51988342
Pb       6.23629869      12.47198859       6.53861200      -0.00042281      -0.00080083       0.00342358      -4.39723887
I        9.34965006      11.64247119       6.44140506      -0.00110271       0.00254222       0.00071357      -2.11532456
I        7.06536733      15.57913132       6.75071611      -0.00316813      -0.00009100       0.00338699      -2.11524054
I        6.38743061      12.24950799       9.77763040       0.00113953       0.00006860      -0.00275722      -2.11860858
Cs       3.38479940       9.16541670       9.75789422       0.00214530       0.00211335       0.00134501      -3.48726498
Pb       6.32452620       6.21618923      13.02544545      -0.00113506       0.00290917       0.00109282      -4.39132783
I        3.11208773      11.67088745      12.81981536       0.00136724      -0.00725444       0.00596091      -2.13183467
I        7.12593815       9.34237950      13.18596558       0.00047125      -0.00299168       0.00168559      -2.11819524
I        6.36196158       6.01019957      16.24897590      -0.00076062      -0.00461307       0.00178494      -2.12153360
Cs       9.54597683       9.31135238      16.26305545       0.00087937       0.00027400      -0.00308028      -3.51998828
Pb       6.28372179       6.25021086      19.49420712      -0.00003893       0.00154151       0.00068005      -4.40407528
I        3.15110279      13.30253526      19.53783723       0.00125339       0.00114078      -0.00888136      -2.11712312
I        5.45152247       9.35976689      19.28476781      -0.00395938      -0.00107878      -0.00523236      -2.10920864
I        6.21430610       6.47547500      22.72802559       0.00122053       0.00526256       0.00139752      -2.12258630
Cs       9.28905564       9.40339986      22.73535150      -0.00145166      -0.00090368      -0.00079570      -3.52023891
Pb       6.30428599      12.45755983      13.00916344       0.00615037       0.00113189       0.00074506      -4.38717225
I        9.45372611      13.22196199      13.09486976       0.00158488       0.00124954       0.00046551      -2.11868493
I        5.50884943      15.58446240      12.86724981       0.00557934       0.00335395       0.00174660      -2.11605650
I        6.18163704      12.67752188      16.24632663      -0.00111489      -0.00352748       0.00219595      -2.12505681
Cs       3.01353946       9.41169132      16.21613572      -0.00140089       0.00602157      -0.00471251      -3.51008832
Pb       6.28203706      12.47203348      19.49783762      -0.00170813      -0.00131701      -0.00264506      -4.40102738
I        9.40521623      11.65294104      19.42270870       0.00052383      -0.00056630       0.00161032      -2.11451353
I        7.09387718      15.59334557      19.69556633      -0.00043747      -0.00066962      -0.00097990      -2.11138002
I        6.35588344      12.25404393      22.74306971      -0.00446986      -0.00048998       0.00026053      -2.12658256
Cs       3.29651812       9.33024509      22.73632700      -0.00281306       0.00181251      -0.00464718      -3.52221454
Pb       0.00571613      12.47143024       0.01198753       0.00079410      -0.00138247       0.00515196      -4.37019515
I       -3.12563530      17.88603590      -0.04544912      -0.00078421      -0.00013479       0.00134909      -2.11295727
I        0.82776502      15.57615854       0.24492816      -0.00117937       0.00141139      -0.00283386      -2.11456744
I        0.12630960      12.29173885       3.42787034      -0.00260229       0.00070238       0.00560628      -2.14253733
Cs       3.26161963      15.51644273       3.29582990      -0.00198354      -0.00513963       0.00045768      -3.51943547
Pb      -0.02559097      12.45867610       6.46384103       0.00316878      -0.00203320      -0.02415604      -4.17927715
I       -3.11113144      19.51401636       6.62394768       0.00092542       0.00405957      -0.00160740      -2.13036535
I       -0.82897494      15.56637795       6.36327867       0.00064378      -0.00212550      -0.00008285      -2.13030797
I       -2.53804638      12.93035024      11.30598674      -0.09362569      -0.00821808       0.09027303      -2.10859758
Cs       3.24499633      15.83474327       9.76552088       0.00786355       0.00437336       0.00225275      -3.47433504
Pb      -0.00184693      18.70197127       0.03380494      -0.00029106      -0.00058067      -0.00026463      -4.40320532
I        3.11781841      19.52080808       0.10948252      -0.00019385       0.00000072      -0.00052580      -2.11058285
I       -0.82897810      21.81558920      -0.16548021      -0.00031795       0.00055812      -0.00154070      -2.11170457
I       -0.09692718      18.92172470       3.28296457      -0.00232631      -0.00023499      -0.00061943      -2.12444976
Cs      -3.22748949      15.64339924       3.24825793      -0.00174515      -0.00014716      -0.00019684      -3.51858632
Pb       0.02468148      18.71772274       6.51463037       0.00105304       0.00172569      -0.00215869      -4.38951550
I        3.12725954      17.87440063       6.40710849      -0.00010715      -0.00012860      -0.00107280      -2.11622460
I        0.81789757      21.82305965       6.71453268      -0.00192624      -0.00021687      -0.00144299      -2.11122094
I        0.14566507      18.50468005       9.76805930       0.00163979       0.00523804       0.00149249      -2.13935126
Cs      -3.16077833      16.19276276       9.51901711       0.00274553       0.01459529      -0.00187547      -3.47030170
Pb       0.04466978      12.45581607      13.02536050       0.00140765      -0.00039255       0.00620137      -4.09595032
I       -3.06809158      17.77193313      13.04921346       0.00521435      -0.00017762      -0.00276929      -2.13811721
I        0.91221192      15.54814304      13.14192091       0.00379447      -0.00069878      -0.01031407      -2.11870806
I       -0.10827776      12.35100436      16.13226309      -0.01758095       0.01045478      -0.01467091      -2.15702914
Cs       3.29529434      15.56626408      16.26143568      -0.00403262       0.00427812      -0.00557847      -3.51449960
Pb       0.03269509      12.48367710      19.51168052      -0.00008851       0.00005979       0.00640907      -4.37203637
I       -3.08860864      19.54208980      19.55181732       0.00142719       0.00065414      -0.00418166      -2.11400790
I       -0.77605564      15.59369298      19.34725938      -0.00036065       0.00282480       0.00668862      -2.11363300
I       -0.02050514      12.69050131      22.74813155       0.00681408      -0.00569523      -0.00259776      -2.13587412
Cs       3.05040632      15.64822194      22.73534939      -0.00143489      -0.00294191      -0.00306773      -3.52313676
Pb       0.03737336      18.67177802      13.02149794       0.00320605       0.00368782       0.00081303      -4.39294937
I        3.15538624      19.52839398      13.09440226       0.00066246      -0.00293429       0.00114686      -2.12146566
I       -0.74863375      21.79893559      12.82076754       0.00470351      -0.00330819       0.00174719      -2.12081187
I       -0.05160947      18.89216822      16.25747182       0.00782037      -0.00490869      -0.00138245      -2.12349199
Cs      -3.21209696      15.69606976      16.37415116       0.00374176       0.00354709       0.00181049      -3.45979868
Pb       0.03579324      18.72564779      19.50608564       0.00150945      -0.00156425       0.00279138      -4.40224689
I        3.15329166      17.89639839      19.42802930       0.00138847      -0.00253833      -0.00131661      -2.11166362
I        0.85535512      21.83691316      19.68809550       0.00196903      -0.00019118      -0.00026641      -2.11361139
I        0.12260922      18.49680913      22.74432050      -0.00088123       0.00072448       0.00147448      -2.12095966
Cs      -2.96618633      15.57229302      22.75205397       0.00154079      -0.00103986       0.00178249      -3.52100844
159
Lattice="12.468885909578862 12.45567328789723 0.03660330624248233 -12.500938529614729 12.48755672392219 -0.009239974293740398 0.04511830023029706 0.02729054207635215 25.947711814671685" Properties=species:S:1:pos:R:3:forces:R:3:energies:R:1 energy=-453.97802644875026 stress="2.505173384815527e-05 5.290110112277697e-05 -3.4543723339034837e-06 5.290110112277697e-05 -0.00014361260672405253 6.55716017673978e-05 -3.4543723339034837e-06 6.55716017673978e-05 0.0006262524204107292" free_energy=-453.97802644875026 pbc="T T T"
Pb       0.01771236      -0.00723269       0.00491291      -0.00071938       0.00026729      -0.00051123      -4.40212220
I       -3.10839311       5.40886564      -0.06292159      -0.00016225      -0.00017416      -0.00065449      -2.11230637
I        0.83402430       3.11390768       0.21052301      -0.00023907      -0.00016710       0.00083117      -2.11208391
I        0.09321651      -0.23417086       3.24885112      -0.00696698      -0.00089822      -0.00125043      -2.12385901
Cs       3.26866895       3.06834366       3.25505377       0.00274427       0.00799944      -0.00393669      -3.52524894
Pb       0.02113409      -0.00136294       6.48311278      -0.00016233       0.00125625      -0.00041138      -4.39844000
I       -3.10028552       7.06730593       6.58621907       0.00126805      -0.00023094       0.00142023      -2.11514020
I       -0.79729245       3.12445366       6.30380979      -0.00037004       0.00127574       0.00181564      -2.11501791
I        0.00009712       0.20404930       9.74277361       0.00794150      -0.00231017      -0.00370942      -2.13975260
Cs       3.04059874       3.10983339       9.74056609       0.00132045      -0.00688646      -0.00424948      -3.52982505
Pb       0.01377666       6.22956738       0.02438590       0.00017482       0.00074891       0.00063477      -4.40210305
I        3.13351200       7.05129105       0.08562062       0.00042287       0.00108341      -0.00023488      -2.11045474
I       -0.81774929       9.35965398      -0.13437068       0.00004334      -0.00104955       0.00058033      -2.11498224
I       -0.05702100       6.47425524       3.27336595       0.00069385       0.00242152       0.00019226      -2.12578975
Cs      -3.22780609       3.15279278       3.24797812       0.00012377      -0.00209780       0.00056914      -3.51905564
Pb       0.01609782       6.23636690       6.51430976       0.00055210      -0.00043757       0.00189456      -4.39894275
I        3.13754237       5.41902170       6.44836997       0.00057276      -0.00051175       0.00281069      -2.11279740
I        0.84651886       9.38304279       6.77595962      -0.00016249       0.00180304       0.00641556      -2.12109258
I        0.13034912       6.01033358       9.75591739       0.00245376      -0.00617347       0.00101305      -2.12141513
Cs      -2.93341083       3.07596159       9.75144296       0.00266332      -0.00631733       0.00192789      -3.51665143
Pb       0.11422854      -0.02006423      12.99492035       0.00281988       0.00474372       0.00143988      -4.38932832
I       -3.06387098       5.42903228      12.90758155       0.00692938      -0.00562866       0.00057459      -2.11641834
I        0.90106737       3.09745186      13.18862624      -0.00290261       0.00919852       0.00126804      -2.11567450
I        0.15463464      -0.23444773      16.22355501      -0.00892251      -0.00038553       0.00383805      -2.12261536
Cs       3.35289394       3.04628091      16.22415761       0.01154889      -0.00039145      -0.00739243      -3.52299258
Pb       0.06516017       0.01208922      19.46858480       0.00132016       0.00052055      -0.00236241      -4.40120677
I       -3.06781686       7.04721496      19.59611822       0.00144301      -0.00169815       0.00007831      -2.11528416
I       -0.76500964       3.12703187      19.27948539      -0.00043297       0.00010256      -0.00051086      -2.11037752
I       -0.01422430       0.24058362      22.70881852       0.00373981       0.00235884      -0.00080487      -2.12619345
Cs       3.05403684       3.16111113      22.71175441       0.00106920      -0.00386421      -0.00279541      -3.52240285
Pb       0.07094669       6.20833471      12.99947262      -0.00012990       0.00504561      -0.00193191      -4.40090661
I        3.20269718       7.01986986      13.08154554      -0.00435248       0.00351032       0.00032358      -2.11710689
I       -0.72257532       9.34978977      12.81843988      -0.00027556       0.00405783      -0.01442824      -2.10827406
I       -0.02739473       6.44305680      16.24082172      -0.00054368       0.00439023      -0.00369105      -2.12338038
Cs      -3.19254376       3.16381550      16.21920680       0.00147761      -0.00623464      -0.00143802      -3.52127544
Pb       0.06034602       6.23818070      19.48426634       0.00184904       0.00015350      -0.00156609      -4.40314776
I        3.17406424       5.40800116      19.40108972       0.00120173      -0.00308567      -0.00084334      -2.10941472
I        0.87060788       9.37786783      19.63792081       0.00204649      -0.00186048      -0.01115116      -2.11841508
I        0.14839598       6.03985223      22.72947253       0.00144449       0.00173986       0.00005534      -2.12314906
Cs      -2.93619565       3.09691284      22.71469066       0.00016713       0.00093788      -0.00128811      -3.52216183
Pb      -6.23134725       6.23426462       0.00205964      -0.00023915      -0.00072302       0.00008492      -4.40317419
I       -9.36034148      11.65582448      -0.08231528      -0.00058185       0.00094287      -0.00090081      -2.11310041
I       -5.41527981       9.35356777       0.18940537      -0.00041320      -0.00016939      -0.00027865      -2.11247543
I       -6.12827825       6.00270205       3.24683484       0.00330619      -0.00137460      -0.00050667      -2.12474987
Cs      -3.02063930       9.28839779       3.26661486      -0.00304484       0.00230686       0.00242516      -3.52009564
Pb      -6.21512644       6.24298656       6.47751789       0.00097031       0.00058394       0.00087891      -4.39810336
I       -9.36703532      13.30213547       6.49533041      -0.00159997       0.00100796      -0.01109983      -2.10409219
I       -7.06563031       9.34102055       6.26579881      -0.00156309      -0.00273187      -0.00156352      -2.10468128
I       -6.32975189       6.44921816       9.73625766      -0.00041547       0.00331302      -0.00072263      -2.14477193
Cs      -3.28593978       9.33801143       9.78389225      -0.00832150       0.00722308      -0.00268449      -3.51493186
Pb      -6.24103340      12.46984301      -0.02039011       0.00050663      -0.00009813      -0.00068939      -4.40276371
I       -3.10632182      13.29094988       0.10223607      -0.00100826      -0.00033455      -0.00499044      -2.11759783
I       -7.06284071      15.59113296      -0.18331577       0.00087719       0.00042045      -0.00172785      -2.11336794
I       -6.31843408      12.65935150       3.21523596       0.00566204       0.00126144      -0.00316922      -2.11436490
Cs      -9.48661443       9.40885284       3.22338963      -0.00355709       0.00081262      -0.00203549      -3.52533521
Pb      -6.26344442      12.44956292       6.45302262      -0.00174068      -0.00186134       0.00123731      -4.40598744
I       -3.10302610      11.62188919       6.46716970       0.00342760       0.00077484       0.00708017      -2.12246957
I       -5.48326046      15.58440476       6.56908113      -0.00118970       0.00046386       0.00115383      -2.11814916
I       -6.45063093      12.19673735       9.67535468      -0.00411577      -0.00097738       0.00468382      -2.09615960
Cs      -9.24905382       9.35999242       9.77029060      -0.01267235      -0.00377533       0.00466129      -3.53145451
Pb      -6.18712632       6.25189942      12.98958088       0.00552919      -0.00108252      -0.00006460      -4.39130733
I       -9.17050028      11.76335966      13.01708179      -0.01335077      -0.00878972       0.00634490      -2.10325182
I       -5.34467621       9.37151982      13.17895643      -0.00050091       0.00163089      -0.00000668      -2.12209694
I       -6.10216471       6.03611158      16.22443665       0.00404564      -0.00057715       0.00069426      -2.12960396
Cs      -2.99445088       9.21191933      16.30517555      -0.00039563      -0.00056473       0.00041715      -3.51992418
Pb      -6.19780670       6.25641848      19.47481332       0.00143818      -0.00089800      -0.00137364      -4.40045491
I       -9.30372041      13.31213094      19.49579057       0.00128851      -0.00176869      -0.00929218      -2.11853241
I       -7.00384389       9.38182610      19.23261733       0.00438970      -0.00113927      -0.00354097      -2.11539110
I       -6.28899920       6.48996070      22.70909959       0.00024806       0.00056863       0.00006943      -2.12367261
Cs      -3.19669146       9.41005145      22.74025084      -0.00011053      -0.00417858       0.00182286      -3.52136909
Pb      -6.06627879      12.49707022      12.84845355       0.00663333      -0.00022925      -0.00147809      -4.35940359
I       -6.94812646      15.59212973      12.75253881       0.00199542      -0.00515237      -0.00700003      -2.11223479
I       -6.01873377      12.76809503      16.15787488       0.01763558      -0.00230244      -0.00439589      -2.13968096
Cs      -9.44293747       9.41137754      16.20948799      -0.00184769      -0.00518348       0.00346470      -3.51114603
Pb      -6.17359745      12.50070689      19.42548341       0.00481219       0.00021687       0.00066636      -4.39735188
I       -3.06284068      11.64058343      19.44241476       0.00062502      -0.00350351       0.00654146      -2.10778431
I       -5.37312397      15.61547599      19.67892070       0.00152276       0.00159624      -0.00020098      -2.11075450
I       -6.11837715      12.27810311      22.67263618      -0.00460159      -0.00126267       0.00077857      -2.12245734
Cs      -9.18676025       9.34878372      22.70075875       0.00220971       0.00001458      -0.00183726      -3.52123806
Pb       6.25332194       6.22597981       0.01436937      -0.00010413       0.00092571      -0.00011722      -4.40439929
I        3.11260475      11.62903047      -0.01852640       0.00129849      -0.00154195       0.00013086      -2.11425082
I        7.07489329       9.34228803       0.22422518       0.00056277       0.00068075       0.00049290      -2.10977138
I        6.33749930       6.04632098       3.26081988      -0.00100597      -0.00117375       0.00066477      -2.12017126
Cs       9.50738769       9.29686673       3.27741471      -0.00115130      -0.00065285      -0.00026151      -3.51857294
Pb       6.24815943       6.23870758       6.48105173       0.00076204      -0.00033566       0.00274149      -4.38617219
I        3.08432982      13.29888811       6.74493365      -0.00282137       0.00109411       0.00280656      -2.12159426
I        5.42823015       9.35086919       6.33148501      -0.00065038      -0.00058817       0.00464778      -2.11749703
I        6.27066718       6.39959720       9.75463218       0.00269342       0.00513716       0.00011169      -2.15733444
Cs       9.31750044       9.44611978       9.76839906       0.00417831       0.00010950       0.00045505      -3.51188728
Pb       6.24307103      12.45593334       0.04056182      -0.00167643       0.00013963       0.00040715      -4.40113171
I        9.36313252      13.27340869       0.11715645      -0.00113253       0.00074913      -0.00303679      -2.11327278
I        5.41986875      15.57246237      -0.15744926      -0.00197064      -0.00041729      -0.00114374      -2.11065207
I        6.13732989      12.69013429       3.29327504      -0.00198166      -0.00056121       0.00100891      -2.13046071
Cs       3.01825303       9.35883829       3.26931509      -0.00095817      -0.00255600       0.00349494      -3.51981939
Pb       6.24296542      12.46923874       6.53824009      -0.00072169      -0.00042674       0.00269912      -4.39699142
I        9.35408401      11.63887906       6.44245250      -0.00144210       0.00187851       0.00101774      -2.11606908
I        7.06674076      15.57921500       6.75172316      -0.00212373      -0.00069104       0.00361548      -2.11546999
I        6.38290896      12.24745233       9.77651515      -0.00197407      -0.00149551      -0.00138125      -2.11921244
Cs       3.38764059       9.16989462       9.76514675       0.00184578       0.00355269       0.00250500      -3.48736220
Pb       6.32618131       6.21613549      13.02357889      -0.00125309       0.00398579       0.00036284      -4.39397495
I        3.13683119      11.65027768      12.87430051       0.00351540      -0.00970014       0.01024745      -2.12990068
I        7.13472406       9.34000832      13.18668929      -0.00144725       0.00004844       0.00220054      -2.11722911
I        6.37395835       6.00152706      16.24609177      -0.00035374      -0.00499153       0.00115337      -2.11868520
Cs       9.54857883       9.31001744      16.26554684       0.00161046       0.00026681      -0.00265766      -3.52143170
Pb       6.28964937       6.24413601      19.48904161       0.00113672       0.00030768      -0.00099383      -4.40574360
I        3.14943009      13.30436221      19.52766201       0.00121118       0.00066933      -0.01031955      -2.11797281
I        5.45692669       9.35785273      19.28653297      -0.00273482      -0.00071340      -0.00495919      -2.11015368
I        6.21404101       6.47112173      22.72594787       0.00097744       0.00356366       0.00070537      -2.12328789
Cs       9.28869634       9.40336532      22.73543782      -0.00153869      -0.00044230      -0.00052788      -3.52071763
Pb       6.31283648      12.45567162      13.01264637       0.01040910       0.00292917       0.00156762      -4.39295481
I        9.45188221      13.23470465      13.09406285      -0.00557939       0.00171646      -0.00092803      -2.11477606
I        5.50408159      15.57987274      12.86439759       0.00447202       0.00054018       0.00123653      -2.11582627
I        6.19367112      12.68224186      16.24964166       0.00079532      -0.00293099       0.00173713      -2.12243976
Cs       3.02729771       9.39633914      16.22199217      -0.00077562       0.00264497      -0.00266085      -3.50882033
Pb       6.28318967      12.47246598      19.49621778      -0.00142601      -0.00121807      -0.00202180      -4.40146747
I        9.40622083      11.65519415      19.42465826       0.00030136       0.00046424       0.00271372      -2.11392923
I        7.09340415      15.59409606      19.69674241      -0.00054050      -0.00126668      -0.00022070      -2.11093926
I        6.35414450      12.25418721      22.74320695      -0.00466820      -0.00046410      -0.00035463      -2.12615985
Cs       3.29535579       9.32735316      22.73110334      -0.00238237       0.00145125      -0.00446682      -3.52170656
Pb       0.00572472      12.47065250       0.00089797       0.00077710      -0.00095634       0.00101135      -4.36932629
I       -3.12555357      17.88465561      -0.04728479      -0.00069142      -0.00019367       0.00107091      -2.11271449
I        0.82882236      15.57469706       0.23807679      -0.00077213       0.00071191      -0.00237455      -2.11430594
I        0.12477345      12.28429576       3.40648097      -0.00255071       0.00126354       0.00161905      -2.14599418
Cs       3.26449137      15.52249873       3.28993714      -0.00139505      -0.00435646       0.00015959      -3.51900737
Pb      -0.00563540      12.45625966       6.43772051       0.00137761      -0.00160567      -0.01682744      -4.17087827
I       -3.10978611      19.50707253       6.62144335       0.00090332       0.00397910      -0.00220423      -2.12741185
I       -0.82324552      15.56199493       6.36490459      -0.00033812      -0.00156409       0.00040301      -2.12939237
I       -2.83769183      13.08801166      11.83607429      -0.06254225       0.01246374       0.11175629      -2.13233445
Cs       3.24872750      15.83706850       9.76085974       0.00737094       0.00482769       0.00088796      -3.47231629
Pb      -0.00198612      18.70056641       0.02991727      -0.00019130      -0.00055409      -0.00046281      -4.40308236
I        3.11792383      19.52060499       0.10907809       0.00000292      -0.00010962      -0.00093006      -2.11084496
I       -0.82840752      21.81492031      -0.16605163       0.00013756       0.00050520      -0.00199361      -2.11186522
I       -0.09667973      18.91850757       3.27939094      -0.00179524      -0.00091506      -0.00080393      -2.12476644
Cs      -3.22852351      15.64448477       3.24879541      -0.00089690      -0.00024084       0.00021165      -3.51866978
Pb       0.02593069      18.71546152       6.51276344       0.00026029       0.00079538      -0.00171017      -4.39096983
I        3.13140246      17.87721023       6.40593728      -0.00028494       0.00039094      -0.00184095      -2.11593628
I        0.81904030      21.82232939       6.71279119      -0.00246457      -0.00019804      -0.00190287      -2.11169470
I        0.14305596      18.50108139       9.76371980       0.00004970       0.00333084       0.00091647      -2.13673844
Cs      -3.15830487      16.13721315       9.54099057       0.00383673       0.00496517      -0.00078451      -3.46998481
Pb       0.05756467      12.45373976      13.02701430      -0.00465179       0.00193280       0.00733597      -4.12372313
I       -3.06500276      17.79934964      13.03198656       0.00540011       0.00626545      -0.00548003      -2.13115456
I        0.90909702      15.54719709      13.13124042       0.00695281      -0.00326895      -0.00888194      -2.11824251
I       -0.13154457      12.34797229      16.08548501      -0.01502979       0.00789082      -0.01377775      -2.16199610
Cs       3.29696524      15.57360324      16.25535015      -0.00335129       0.00438271      -0.00576710      -3.51429860
Pb       0.03084085      12.48862074      19.50761137      -0.00010439       0.00008962       0.00237013      -4.36538176
I       -3.08785525      19.54797637      19.55629794       0.00169382       0.00161012      -0.00310233      -2.11175265
I       -0.78911215      15.59244064      19.32089253      -0.00134110       0.00204632       0.00264539      -2.11223864
I       -0.02218799      12.69236131      22.72777137       0.00727670      -0.00531165      -0.00371479      -2.13794337
Cs       3.05341007      15.64815816      22.73087440      -0.00125627      -0.00332401      -0.00337874      -3.52244716
Pb       0.04004239      18.67771511      13.01666808       0.00377903       0.00648034       0.00027118      -4.39516144
I        3.15788091      19.52431864      13.09285705       0.00192734      -0.00239891       0.00117399      -2.12034271
I       -0.74979924      21.79946187      12.81944941       0.00412831      -0.00159959       0.00071678      -2.11923128
I       -0.04876079      18.89477314      16.25253604       0.00963047      -0.00323564      -0.00111870      -2.12107200
Cs      -3.19564215      15.62047696      16.28125054       0.00852804      -0.00796779      -0.01565681      -3.48014704
Pb       0.03184750      18.72176602      19.49931547       0.00114615      -0.00156168       0.00169931      -4.40384096
I        3.15216113      17.89551825      19.42679105       0.00126898      -0.00227740      -0.00144159      -2.11171294
I        0.85400021      21.83486471      19.68577608       0.00172876      -0.00015466      -0.00018527      -2.11309611
I        0.12152597      18.49217122      22.73987133      -0.00083835      -0.00004105       0.00105416      -2.12169042
Cs      -2.96811281      15.57624030      22.74330713       0.00142027      -0.00045610       0.00039747      -3.52182076
159
Lattice="12.468885909578862 12.45567328789723 0.03660330624248233 -12.500938529614729 12.48755672392219 -0.009239974293740398 0.04511830023029706 0.02729054207635215 25.947711814671685" Properties=species:S:1:pos:R:3:forces:R:3:energies:R:1 energy=-454.0394005102181 stress="-9.305384846980122e-05 4.842743100156693e-05 2.3895185675878553e-05 4.842743100156693e-05 -0.00010784119849641193 4.9919520963711577e-05 2.3895185675878553e-05 4.9919520963711577e-05 0.0006496129137362406" free_energy=-454.0394005102181 pbc="T T T"
Pb       0.01902761      -0.00712254       0.00621061      -0.00058513       0.00033326      -0.00084535      -4.40234897
I       -3.10832775       5.40833607      -0.06308746      -0.00010631      -0.00039242      -0.00075837      -2.11179006
I        0.83420900       3.11480472       0.21014766      -0.00008916       0.00000109       0.00067228      -2.11195984
I        0.09951474      -0.23383851       3.25019174      -0.00512697      -0.00079538      -0.00049264      -2.12374203
Cs       3.26876248       3.06545851       3.25790480       0.00229330       0.00541431      -0.00274810      -3.52372015
Pb       0.02395620      -0.00188043       6.48633550      -0.00054498       0.00087725      -0.00110248      -4.39813124
I       -3.09869547       7.06673921       6.58659557       0.00093331      -0.00016298       0.00009257      -2.11546363
I       -0.79456883       3.12329478       6.29850247      -0.00014720       0.00093638       0.00018338      -2.11515027
I       -0.01475386       0.21083570       9.74054714       0.00526377      -0.00144711      -0.00158895      -2.13651173
Cs       3.03341979       3.11955469       9.74614238      -0.00062969      -0.00578514      -0.00444377      -3.52510575
Pb       0.01334011       6.23098693       0.02150325      -0.00005705       0.00064758       0.00029247      -4.40227604
I        3.13382974       7.05121380       0.08617145       0.00012524       0.00062553      -0.00106402      -2.11045865
I       -0.82108595       9.35982431      -0.13653169      -0.00043178      -0.00046767       0.00070879      -2.11397855
I       -0.05801751       6.47762066       3.26912379       0.00026982       0.00237122       0.00052001      -2.12505930
Cs      -3.22823635       3.15138979       3.24762025      -0.00028593      -0.00201716      -0.00046830      -3.51874922
Pb       0.01834477       6.23437579       6.51053684       0.00108526       0.00044824       0.00148907      -4.39957954
I        3.13902276       5.41390581       6.44933793       0.00079586      -0.00064442       0.00195004      -2.11327922
I        0.85176355       9.38051641       6.77274278      -0.00011555       0.00159729       0.00575639      -2.12073095
I        0.12564962       6.00066704       9.74952080       0.00209641      -0.00610632       0.00015137      -2.11904446
Cs      -2.93494031       3.07297710       9.74609149       0.00245165      -0.00359417       0.00070901      -3.51781250
Pb       0.08352539      -0.00751694      12.99361939      -0.00518054       0.00371066       0.00113926      -4.39674895
I       -3.06993909       5.43561263      12.89963986       0.00442196      -0.00415309      -0.00014416      -2.11436942
I        0.88476455       3.11533023      13.19202817      -0.00227989       0.00356938       0.00203364      -2.11494891
I        0.14401870      -0.22684374      16.22639985      -0.00885218      -0.00060889       0.00133089      -2.12088150
Cs       3.34212583       3.05440948      16.22488285       0.00800404       0.00156403      -0.00322527      -3.51939412
Pb       0.06356314       0.01175199      19.46754065       0.00092590       0.00076082      -0.00074606      -4.40179032
I       -3.06947873       7.05957775      19.57527100       0.00129686      -0.00104648      -0.00155854      -2.11267688
I       -0.76260200       3.13100117      19.27608230       0.00047646       0.00016420      -0.00048787      -2.11133519
I       -0.01439452       0.24218665      22.71051445       0.00404319       0.00229520      -0.00080968      -2.12595286
Cs       3.05460442       3.16556268      22.70982498       0.00029449      -0.00299141      -0.00266345      -3.52139467
Pb       0.05963944       6.22300619      12.98832497      -0.00122559       0.00439668      -0.00147070      -4.39996644
I        3.18793556       7.03073659      13.07485422      -0.00345440       0.00347413      -0.00015029      -2.11689217
I       -0.74782975       9.37110405      12.74304832      -0.00680913       0.00403092      -0.01058485      -2.11592148
I       -0.03806465       6.47462108      16.23011879       0.00030984       0.00324016      -0.00172419      -2.12546508
Cs      -3.19365598       3.16984865      16.22263746       0.00074595      -0.00270350      -0.00018337      -3.52183472
Pb       0.05623191       6.24571085      19.47599572       0.00142230       0.00013498      -0.00127664      -4.40224286
I        3.17258529       5.41194540      19.39619480       0.00109494      -0.00114053      -0.00061803      -2.11106168
I        0.87244442       9.38195566      19.63436678       0.00197481      -0.00075014      -0.00558003      -2.11663462
I        0.14502923       6.04597988      22.72280171       0.00053286       0.00140119      -0.00028272      -2.12447142
Cs      -2.93604210       3.09755328      22.71407786       0.00078087       0.00067936      -0.00091975      -3.52134246
Pb      -6.23070846       6.23544137       0.00169978       0.00000380      -0.00061247      -0.00033530      -4.40335789
I       -9.35827234      11.65617938      -0.07708147       0.00003680       0.00060787      -0.00017337      -2.11283070
I       -5.41306763       9.35410287       0.19439544      -0.00001416       0.00019623       0.00030926      -2.11162551
I       -6.12752781       6.00547520       3.24671377       0.00297417      -0.00139139      -0.00027851      -2.12452859
Cs      -3.02120043       9.30079291       3.27625223      -0.00214849       0.00333132       0.00254161      -3.51969025
Pb      -6.21427314       6.24218802       6.47656961       0.00061059       0.00031888      -0.00009574      -4.39662786
I       -9.35718862      13.29898381       6.51931548      -0.00125085       0.00009234      -0.00742324      -2.10864578
I       -7.05576293       9.34549001       6.27463214      -0.00031971      -0.00120314      -0.00106319      -2.10857308
I       -6.33094466       6.45029284       9.73496309      -0.00084970       0.00237900      -0.00103273      -2.14726650
Cs      -3.33803964       9.32060365       9.78021574      -0.00887031      -0.00283744      -0.00295988      -3.49304253
Pb      -6.23777697      12.47115555      -0.01146777       0.00048720      -0.00004267       0.00062014      -4.40286789
I       -3.10502715      13.29624530       0.09869182      -0.00095882       0.00025482      -0.00409394      -2.11567103
I       -7.06466172      15.59032366      -0.18379249       0.00027624      -0.00026268      -0.00147444      -2.11235589
I       -6.30271378      12.66916948       3.22711812       0.00555927       0.00015501       0.00019352      -2.11770782
Cs      -9.48306166       9.40721985       3.22941293      -0.00281599       0.00024422      -0.00220417      -3.52332167
Pb      -6.25142252      12.45649456       6.46947169      -0.00016111      -0.00032312       0.00139789      -4.40358204
I       -3.09007133      11.62940978       6.50629625       0.00169551       0.00078411       0.00564166      -2.12236433
I       -5.46200180      15.58579308       6.59987396       0.00084883       0.00034912       0.00246093      -2.11630678
I       -6.33871983      12.20393618       9.69726446       0.00544461       0.00068512       0.00273888      -2.10936119
Cs      -9.24082941       9.36471521       9.75561962      -0.00751389      -0.00134505       0.00144543      -3.52814589
Pb      -6.19374321       6.24699955      12.99097187       0.00528354       0.00078339       0.00030372      -4.39310418
I       -9.26809044      11.71022581      12.98281769      -0.00469033      -0.00729970       0.00519927      -2.11010594
I       -5.36741787       9.36452500      13.18373395       0.00164179       0.00184895      -0.00025239      -2.12064436
I       -6.10431147       6.03416699      16.22362310       0.00163453      -0.00132033       0.00057290      -2.12755717
Cs      -2.98689272       9.24987875      16.26536291       0.00143563       0.00190889      -0.00021739      -3.51782477
Pb      -6.19683661       6.25833721      19.47189505       0.00116774      -0.00070545      -0.00072636      -4.40177731
I       -9.30476157      13.31303390      19.49997745       0.00060639      -0.00128820      -0.00616829      -2.11768197
I       -7.00898317       9.38082442      19.23871913       0.00252996      -0.00118876      -0.00129562      -2.11336797
I       -6.28567241       6.49051605      22.70865478       0.00102537       0.00106363      -0.00017759      -2.12457848
Cs      -3.19592625       9.40688112      22.73343456      -0.00004411      -0.00394950       0.00180385      -3.52174791
Pb      -6.14291432      12.48765478      12.91054581      -0.00329489       0.00063851       0.00400928      -4.39163765
I       -6.97800449      15.59535586      12.76034120      -0.00613873      -0.00081159      -0.00267778      -2.11144813
I       -6.07008928      12.74864839      16.17566927       0.00130638      -0.00513071       0.00041934      -2.14050192
Cs      -9.45373280       9.40689435      16.21441245      -0.00355041      -0.00690652       0.00462682      -3.51399839
Pb      -6.17660145      12.49915903      19.44125798       0.00209267      -0.00074522       0.00174654      -4.39923530
I       -3.06266253      11.63771311      19.42623840       0.00102798      -0.00281300       0.00468204      -2.10907649
I       -5.36684906      15.61208559      19.66306744       0.00118614       0.00024596      -0.00087462      -2.10552887
I       -6.11269603      12.27616323      22.68368980      -0.00404066      -0.00084765       0.00159999      -2.12399601
Cs      -9.18829877       9.34775175      22.70172805       0.00136720       0.00019648      -0.00134494      -3.52081827
Pb       6.25390633       6.22367677       0.01622521      -0.00015507       0.00057827      -0.00061185      -4.40455965
I        3.11193497      11.62731419      -0.02141669       0.00049040      -0.00144459       0.00087159      -2.11378056
I        7.07439595       9.34122753       0.22870033       0.00021851       0.00008872       0.00034735      -2.11023997
I        6.33832976       6.03039445       3.26300015      -0.00164310      -0.00075650       0.00043365      -2.12161923
Cs       9.50775955       9.29113196       3.28066819      -0.00039367      -0.00055484      -0.00002539      -3.51883498
Pb       6.25349930       6.23238296       6.48775756       0.00117708      -0.00106657       0.00202805      -4.39025627
I        3.09076136      13.30295593       6.73338953      -0.00175719       0.00131516       0.00262850      -2.12284878
I        5.43306124       9.34739275       6.33023760      -0.00021884      -0.00080575       0.00301403      -2.11847864
I        6.27063285       6.39374450       9.75531150       0.00287132       0.00214798      -0.00009490      -2.15035313
Cs       9.30739093       9.42428447       9.76662803       0.00356136      -0.00134169      -0.00088147      -3.51604754
Pb       6.24219735      12.45541151       0.04058032      -0.00123273      -0.00000367       0.00039355      -4.40170187
I        9.36323488      13.27264332       0.11723998      -0.00054393       0.00016339      -0.00273269      -2.11316292
I        5.41990891      15.57276103      -0.15856329      -0.00103806      -0.00001451      -0.00097503      -2.11069762
I        6.13549914      12.68950321       3.29250164      -0.00117592       0.00000279       0.00118844      -2.12950348
Cs       3.02033991       9.35717344       3.27000562      -0.00086551      -0.00199209       0.00222481      -3.51911178
Pb       6.24687210      12.46558350       6.53802367      -0.00107485      -0.00046610       0.00174068      -4.39724574
I        9.35881093      11.64025771       6.44230551      -0.00075279       0.00053329       0.00104335      -2.11574071
I        7.06350271      15.57858345       6.75061239      -0.00081072      -0.00031704       0.00286184      -2.11567598
I        6.37624415      12.24517905       9.77490669      -0.00210177      -0.00260908       0.00019755      -2.11886905
Cs       3.39297540       9.17536976       9.76200787       0.00150927       0.00309692       0.00246175      -3.48835362
Pb       6.31093597       6.22433536      13.02195978      -0.00229756       0.00096669      -0.00016966      -4.39628911
I        3.15221421      11.61871984      12.90227242      -0.00159333      -0.00392271       0.00340464      -2.12528056
I        7.13248765       9.34221179      13.18946583      -0.00261965       0.00045455       0.00185267      -2.11585109
I        6.37763040       5.99721912      16.24438858      -0.00028002      -0.00328850       0.00060934      -2.11686284
Cs       9.54448463       9.30392427      16.26661348       0.00195013       0.00029096      -0.00078512      -3.52243465
Pb       6.29476503       6.23729746      19.48594007       0.00126728      -0.00006425      -0.00160230      -4.40676911
I        3.14916695      13.30918829      19.52517216       0.00023944       0.00033964      -0.00706782      -2.11715493
I        5.46361215       9.35633503      19.29246171      -0.00056544      -0.00056226      -0.00307946      -2.11087772
I        6.21317891       6.46775058      22.72657678       0.00105668       0.00142760      -0.00037893      -2.12370799
Cs       9.28801149       9.40381794      22.73724947      -0.00158643       0.00005063       0.00019274      -3.52140412
Pb       6.30744653      12.45688307      13.01511537       0.00159329       0.00047000       0.00107968      -4.39873100
I        9.42447359      13.26921357      13.09490068      -0.00502593       0.00084383      -0.00156686      -2.11445991
I        5.48864135      15.57731147      12.86126658       0.00265917       0.00027544       0.00107461      -2.11430072
I        6.19428905      12.68672441      16.25277465       0.00158954      -0.00185522       0.00058393      -2.11968585
Cs       3.04605977       9.38431444      16.23250593      -0.00051225       0.00043003      -0.00148531      -3.51194338
Pb       6.28282321      12.47385046      19.49516328      -0.00077545      -0.00074417      -0.00075438      -4.40238588
I        9.40502813      11.65610460      19.42604602       0.00046653       0.00128411       0.00345448      -2.11285580
I        7.09503731      15.59532410      19.69824429      -0.00029158      -0.00095030       0.00071307      -2.11112821
I        6.35211935      12.25468878      22.74388691      -0.00410086      -0.00043389      -0.00016595      -2.12551004
Cs       3.29296190       9.32530281      22.72690620      -0.00136532       0.00100236      -0.00259862      -3.52164573
Pb       0.00448964      12.46994877      -0.00435620       0.00067045      -0.00046754       0.00011585      -4.37008039
I       -3.12543493      17.88161847      -0.04919253      -0.00060546      -0.00010471       0.00024234      -2.11191299
I        0.83119861      15.57327326       0.22845544      -0.00019281       0.00035607      -0.00075422      -2.11353474
I        0.11509977      12.28416549       3.39703739      -0.00264761       0.00119353       0.00267658      -2.14904852
Cs       3.26383447      15.52693622       3.28490121      -0.00114080      -0.00312863       0.00014671      -3.51867127
Pb       0.00676708      12.45347670       6.42878240      -0.00070236       0.00002206      -0.00495773      -4.16835884
I       -3.11061312      19.50554742       6.61510915       0.00047392       0.00207611      -0.00264803      -2.12098562
I       -0.82338156      15.55578714       6.38602068      -0.00346492      -0.00082082       0.00438766      -2.12678199
I       -2.98023028      13.26083921      12.45035985      -0.01118741       0.01481019       0.04182982      -2.12382014
Cs       3.24685516      15.84165604       9.75135467       0.00531724       0.00459482      -0.00034606      -3.47183406
Pb      -0.00251757      18.69830673       0.02725675      -0.00016094      -0.00053983      -0.00072405      -4.40306439
I        3.11774900      19.52105186       0.11157849       0.00016843      -0.00021706      -0.00146039      -2.11114065
I       -0.82748390      21.81417361      -0.16358776       0.00042779       0.00035487      -0.00227101      -2.11216988
I       -0.09896701      18.90531815       3.27656792      -0.00121149      -0.00082462      -0.00075431      -2.12523651
Cs      -3.22446483      15.64782930       3.25656043       0.00040465      -0.00030166       0.00018512      -3.51993746
Pb       0.01935194      18.71048990       6.51483334      -0.00065376      -0.00043295      -0.00079188      -4.39459915
I        3.13101218      17.88330557       6.40444651      -0.00013687       0.00081955      -0.00283321      -2.11629252
I        0.81652019      21.81961260       6.71193150      -0.00225189       0.00017329      -0.00217510      -2.11299957
I        0.12380567      18.49477494       9.75962033      -0.00014478       0.00297475      -0.00013799      -2.12912240
Cs      -3.14948621      15.98946119       9.61941804      -0.00098145      -0.00549790       0.00389210      -3.47012427
Pb       0.07198675      12.45743334      13.04217996      -0.00578848       0.00281916       0.00273508      -4.15564025
I       -3.07319911      17.85885397      12.99779997       0.00302287       0.01147584       0.00128933      -2.12132672
I        0.90997819      15.55288543      13.10482090       0.00644574       0.00003566      -0.00593723      -2.11863626
I       -0.06070779      12.32233987      16.08083727      -0.00169772       0.00062192      -0.00269036      -2.15959489
Cs       3.28520141      15.58133776      16.24746906      -0.00235381       0.00270415      -0.00417998      -3.51667762
Pb       0.03225501      12.49333486      19.50574834       0.00038459      -0.00070181      -0.00066138      -4.36660012
I       -3.08762704      19.55383840      19.56111879       0.00140295       0.00145516      -0.00182545      -2.11015863
I       -0.80469161      15.59155313      19.28613114       0.00015171       0.00027420       0.00136116      -2.11153106
I       -0.02544499      12.69260188      22.72083146       0.00591812      -0.00251501      -0.00158163      -2.13943228
Cs       3.05577031      15.64822098      22.72600776      -0.00055688      -0.00304387      -0.00222913      -3.52135387
Pb       0.03969112      18.69511358      13.00753718       0.00392102       0.00229818      -0.00065323      -4.39753673
I        3.15577326      19.52575028      13.08310428       0.00258749      -0.00013957      -0.00054537      -2.11649143
I       -0.76504145      21.80915149      12.81821948       0.00170731       0.00121359       0.00033837      -2.11517876
I       -0.03922130      18.90311590      16.24605036       0.00875820      -0.00115936      -0.00042161      -2.12114383
Cs      -3.18691882      15.54724475      16.17846144       0.00681339      -0.00336430      -0.00744315      -3.51502755
Pb       0.02738303      18.71522555      19.49227540       0.00096925      -0.00073965       0.00051297      -4.40451915
I        3.15131639      17.89458544      19.42430583       0.00095075      -0.00091641      -0.00011588      -2.11186315
I        0.84915300      21.83277061      19.68662748       0.00021820       0.00027119       0.00097473      -2.11291724
I        0.12089121      18.48756024      22.73524159      -0.00121711      -0.00126102      -0.00001436      -2.12287168
Cs      -2.96724862      15.57945590      22.73208012       0.00121260       0.00013753      -0.00049478      -3.52210160
159
Lattice="12.468885909578862 12.45567328789723 0.03660330624248233 -12.500938529614729 12.48755672392219 -0.009239974293740398 0.04511830023029706 0.02729054207635215 25.947711814671685" Properties=species:S:1:pos:R:3:forces:R:3:energies:R:1 energy=-454.0382021484878 stress="-0.00011947777297584381 9.201367471660152e-05 6.28127104899635e-05 9.201367471660152e-05 -9.005013649093377e-05 2.652978994920029e-05 6.28127104899635e-05 2.652978994920029e-05 0.0006023881022337165" free_energy=-454.0382021484878 pbc="T T T"
Pb       0.02027595      -0.00680938       0.01036903      -0.00025682      -0.00006649      -0.00098510      -4.40362434
I       -3.10792339       5.41178242      -0.06758016       0.00024825      -0.00192630      -0.00015418      -2.11118809
I        0.83945545       3.11362587       0.20300133      -0.00009548       0.00140715       0.00349285      -2.11144861
I        0.12462403      -0.22551678       3.25633098      -0.00371196      -0.00041658       0.00211624      -2.12411077
Cs       3.25854779       3.05276590       3.26682890       0.00018758       0.00134674      -0.00264328      -3.52088040
Pb       0.02894079      -0.00355585       6.49712284       0.00036719      -0.00073671      -0.00161518      -4.39742023
I       -3.09776853       7.05738344       6.58047687       0.00019114      -0.00794806      -0.00823882      -2.11732591
I       -0.79805222       3.11995808       6.30722783       0.00447994      -0.00013453      -0.00119751      -2.11634872
I       -0.06035598       0.22216634       9.74002159       0.00384989      -0.00109914       0.00073000      -2.12601821
Cs       3.03006877       3.16943024       9.74504651      -0.00362214      -0.00499424       0.00399209      -3.51981752
Pb       0.01464518       6.22980738       0.01839080      -0.00020117      -0.00051598       0.00067613      -4.40283776
I        3.13568102       7.05003947       0.10104079      -0.00071308       0.00091399      -0.00070886      -2.11142071
I       -0.81452131       9.35658251      -0.14450037      -0.00452569       0.00182935      -0.00128504      -2.11206141
I       -0.07454797       6.46518866       3.26561856       0.00488470       0.00225460       0.00003309      -2.12462127
Cs      -3.22639857       3.15843226       3.25029596       0.00027764      -0.00255003      -0.00232413      -3.51950835
Pb       0.02092575       6.22917514       6.50571469       0.00338016       0.00177622      -0.00090125      -4.39761059
I        3.14241898       5.41061233       6.42876392       0.00123183       0.00110951       0.00153424      -2.11498873
I        0.84278400       9.38062987       6.76067059       0.00400515      -0.00788021       0.00030230      -2.12010203
I        0.12535967       6.03062422       9.74623589      -0.00308224      -0.00752539      -0.00013952      -2.12078768
Cs      -2.95379869       3.08066482       9.73801547       0.00288844      -0.00273843       0.00220877      -3.51943502
Pb       0.04643739       0.00754827      12.98421021       0.00050384      -0.00073725       0.00152083      -4.39833356
I       -3.08339554       5.43704710      12.89366387      -0.00079047      -0.00063360      -0.00123708      -2.11373675
I        0.86301882       3.13420205      13.17391234      -0.00165428       0.00017409       0.00394531      -2.11526309
I        0.14798113      -0.21153237      16.22594699      -0.00241352       0.00012546      -0.00339599      -2.12408309
Cs       3.28533009       3.06200978      16.24363218       0.00116243       0.00058001      -0.00487698      -3.51934678
Pb       0.05466501       0.01180420      19.47091624       0.00014808       0.00024122       0.00094533      -4.40276513
I       -3.07430479       7.07533076      19.56132694       0.00090821      -0.00122897       0.00034382      -2.11311912
I       -0.77231398       3.13130929      19.27768792       0.00281095       0.00187999      -0.00125078      -2.11270087
I       -0.03857384       0.23633857      22.71388393       0.00325348      -0.00020221       0.00068811      -2.12331890
Cs       3.06222288       3.18370671      22.71706018      -0.00099478      -0.00236903       0.00326628      -3.52196990
Pb       0.04101683       6.24395210      12.98623051      -0.00262434       0.00206685      -0.00025854      -4.39794710
I        3.15959266       7.06638718      13.07344442      -0.00020716      -0.00325094       0.00297088      -2.11762375
I       -0.79127029       9.39523342      12.73198448      -0.00447990      -0.00660086      -0.00536280      -2.12066121
I       -0.05583172       6.48084148      16.22840457       0.00128783       0.00294031      -0.00201467      -2.12619221
Cs      -3.20009845       3.17602285      16.22844424       0.00139734      -0.00146271      -0.00442168      -3.52020111
Pb       0.04693278       6.24866868      19.47576422       0.00036516      -0.00014540      -0.00091178      -4.40173571
I        3.16672960       5.41807430      19.39272240      -0.00064344       0.00105919      -0.00004146      -2.11223212
I        0.86782498       9.37673103      19.65117263       0.00188566       0.00180191       0.00076880      -2.11374085
I        0.14982636       6.03746886      22.72017826      -0.00292172       0.00468675       0.00013076      -2.12483613
Cs      -2.93842243       3.09857599      22.71265159       0.00006320      -0.00026295       0.00250345      -3.52160056
Pb      -6.22988770       6.23731775       0.00236597      -0.00025740      -0.00041249      -0.00055347      -4.40303836
I       -9.35776720      11.65407792      -0.07177524       0.00132229      -0.00086530       0.00005736      -2.11178916
I       -5.41014845       9.35476366       0.19604627       0.00036439       0.00080385       0.00350907      -2.11125576
I       -6.12537200       6.01850412       3.25044359      -0.00263629       0.00022849      -0.00102769      -2.12713314
Cs      -3.01704296       9.27861690       3.27150756      -0.00148458       0.00910450       0.00051574      -3.51867836
Pb      -6.21854987       6.24211639       6.48271383      -0.00035333      -0.00090618      -0.00335333      -4.39418026
I       -9.34413480      13.30516951       6.58524227       0.00044862      -0.00572662      -0.00157733      -2.11602187
I       -7.03752079       9.36207700       6.30927054      -0.00037720      -0.00300760      -0.00122870      -2.11502506
I       -6.32205238       6.45541874       9.73519103      -0.00330105      -0.00563905       0.00057556      -2.14566776
Cs      -3.34216294       9.27165757       9.75145538      -0.00338064      -0.00621496       0.00524443      -3.48406403
Pb      -6.23660748      12.47220909       0.01281532      -0.00039752       0.00019849      -0.00007380      -4.40320525
I       -3.10787038      13.29448490       0.10877129       0.00218509       0.00444258       0.00152708      -2.11166639
I       -7.06206948      15.58957375      -0.17192545      -0.00222143      -0.00062423      -0.00346252      -2.11044954
I       -6.31393983      12.69786922       3.26070419       0.00574482      -0.00335574      -0.00142880      -2.12442334
Cs      -9.47193900       9.40744475       3.24721487      -0.00031771       0.00011565      -0.00245105      -3.51954216
Pb      -6.23112980      12.48280468       6.50377070       0.00198276      -0.00486570      -0.00243450      -4.39859155
I       -3.07684386      11.63451218       6.48429871      -0.00830740      -0.00662500       0.00078096      -2.11836924
I       -5.41121883      15.59679860       6.68910616      -0.01020145      -0.00143232      -0.01593621      -2.11447405
I       -6.09971047      12.26791053       9.74098283      -0.01475412      -0.00125676      -0.00084022      -2.11732185
Cs      -9.21469326       9.33674080       9.73429328      -0.00473420       0.00452546       0.00239569      -3.51729998
Pb      -6.20647758       6.25041846      12.98946010       0.00088880       0.00096057       0.00331405      -4.39476303
I       -9.32477258      11.67055783      12.89810142       0.00145449       0.00275394       0.00141543      -2.11564661
I       -5.38212097       9.36766194      13.16552100      -0.00418438       0.00161730       0.01062871      -2.11864732
I       -6.10240123       6.03282205      16.22248664      -0.00219898       0.00215694      -0.00027883      -2.12708909
Cs      -2.99309678       9.28347869      16.24004613       0.00299845       0.00290169      -0.00494811      -3.51724410
Pb      -6.19687020       6.25536088      19.46955893       0.00021129       0.00025987       0.00059682      -4.40217853
I       -9.32144712      13.31762599      19.55331648       0.00144920      -0.00097213      -0.00194210      -2.11300253
I       -7.02210317       9.37302660      19.27079984       0.00155813       0.00087039      -0.00254967      -2.11208986
I       -6.28974134       6.48050437      22.70921303       0.00253793      -0.00009818       0.00069667      -2.12483106
Cs      -3.19462512       9.41744306      22.71604901       0.00202711      -0.00174792       0.00509015      -3.52152966
Pb      -6.20913258      12.48368335      12.97635235       0.00295695       0.00324265      -0.00035197      -4.39845062
I       -7.02126264      15.60064017      12.78445633      -0.00221871       0.00149022      -0.00229239      -2.11219015
I       -6.28430153      12.71387627      16.22263025       0.01015524       0.00135002      -0.00169425      -2.12762535
Cs      -9.45558575       9.41435854      16.22130533      -0.00132013      -0.00112972      -0.00472767      -3.51898805
Pb      -6.20083370      12.49163712      19.47167946      -0.00062445       0.00012566      -0.00039258      -4.40214758
I       -3.07358475      11.66059872      19.37807885       0.00147847      -0.00184260       0.00253950      -2.11298252
I       -5.38282157      15.60976992      19.67071909      -0.00119558      -0.00096748       0.00027133      -2.11204249
I       -6.09516422      12.27252446      22.71520040      -0.00161752       0.00118597       0.00000785      -2.12429245
Cs      -9.18899469       9.34247694      22.70792411      -0.00130030       0.00106218       0.00230732      -3.52162911
Pb       6.25584486       6.22095992       0.02567905       0.00003464      -0.00005771      -0.00059170      -4.40366325
I        3.11504454      11.63739191      -0.02948081      -0.00187375      -0.00450373      -0.00133895      -2.11257573
I        7.07320496       9.34013750       0.22337861       0.00130555       0.00034306       0.00472213      -2.11071984
I        6.35757728       6.00479799       3.27303924      -0.00419147       0.00322499      -0.00126163      -2.12596927
Cs       9.49739179       9.27548335       3.28715914       0.00229177       0.00155518      -0.00184379      -3.51925463
Pb       6.26527824       6.22473553       6.50666103      -0.00007300       0.00134490      -0.00331939      -4.39568693
I        3.09594394      13.29336694       6.69832628       0.00664918       0.00343586       0.00278154      -2.12361410
I        5.43313989       9.34118987       6.33068430       0.00529367       0.00137281      -0.00305234      -2.11954939
I        6.20742290       6.41719681       9.75869506       0.01476466      -0.01115037       0.00083329      -2.13832087
Cs       9.27341270       9.40838098       9.76069103       0.00303045       0.00155375       0.00348146      -3.51916834
Pb       6.24591739      12.45707915       0.03741684       0.00050513      -0.00049243       0.00094816      -4.40270991
I        9.36642301      13.27669269       0.12326069      -0.00137248       0.00051540       0.00142185      -2.11165759
I        5.42045046      15.57449672      -0.14949938      -0.00117766      -0.00101225      -0.00312490      -2.11137153
I        6.14162038      12.68334759       3.28691206      -0.00270738       0.00025291       0.00124606      -2.12725354
Cs       3.03229859       9.36441634       3.27081945      -0.00461931      -0.00099187      -0.00070716      -3.51771727
Pb       6.25424119      12.45737651       6.52980491      -0.00290082       0.00292820       0.00077667      -4.39677433
I        9.36734895      11.63285818       6.44126469      -0.00104371       0.00490278      -0.00065018      -2.11692065
I        7.05967393      15.57741848       6.73669305      -0.00206858       0.00092442       0.00239985      -2.11444749
I        6.34427699      12.24708357       9.76708286       0.00684393      -0.00020161       0.00175939      -2.11979509
Cs       3.37883490       9.20488203       9.75297752      -0.00206892       0.00102553       0.00188595      -3.49332257
Pb       6.27844339       6.23537922      13.01139044      -0.00058302      -0.00072870       0.00317307      -4.39699451
I        3.12292719      11.64731767      12.86801806       0.00801628      -0.00792033       0.00175032      -2.11812184
I        7.09092796       9.35568079      13.18714911       0.00251686      -0.00255057       0.00298446      -2.11357284
I        6.38016982       6.01810953      16.24596140      -0.00558789       0.00099570      -0.00000806      -2.12583184
Cs       9.51504814       9.29428189      16.26255430       0.00181783       0.00253108      -0.00429374      -3.52067392
Pb       6.28892448       6.23909332      19.49221583       0.00016254      -0.00013343       0.00045424      -4.40285751
I        3.15159659      13.30363791      19.56083749      -0.00172304       0.00228378      -0.00235821      -2.11318898
I        5.46127492       9.35594701      19.29921283       0.00220868       0.00119253      -0.00013503      -2.11223992
I        6.19671458       6.46365090      22.73223919       0.00390593      -0.00067614       0.00069429      -2.12416401
Cs       9.29658751       9.41148184      22.73566512       0.00008353      -0.00134104       0.00388377      -3.52196112
Pb       6.27825512      12.47442564      13.00786794      -0.00151394      -0.00458227       0.00195620      -4.39911274
I        9.38993368      13.29365413      13.09314285       0.00044680      -0.00261019       0.00113049      -2.11502247
I        5.45079692      15.58883158      12.83491088       0.00736415      -0.00072246       0.00981953      -2.11448231
I        6.16988640      12.69400108      16.24942745       0.00010798      -0.00307905      -0.00002953      -2.12384830
Cs       3.05502248       9.38275148      16.24180644       0.00027149       0.00530731      -0.00694889      -3.51800125
Pb       6.28145177      12.47413253      19.49533627       0.00023324       0.00032306      -0.00015697      -4.40217014
I        9.40042163      11.64497024      19.41236467      -0.00176544       0.00251734       0.00074522      -2.11296048
I        7.09895502      15.59304065      19.69421220      -0.00059051      -0.00033731       0.00173347      -2.11188969
I        6.37613910      12.25629908      22.74061560      -0.00582131       0.00109636       0.00099572      -2.12478774
Cs       3.30034660       9.32089295      22.72981559      -0.00344867       0.00232263       0.00172930      -3.52175399
Pb       0.00195199      12.46995261      -0.00928152       0.00013366      -0.00024174       0.00751752      -4.37698744
I       -3.12499394      17.88030563      -0.05420724       0.00092159      -0.00136885       0.00123339      -2.11133764
I        0.82435335      15.57554773       0.22273656       0.00440559      -0.00200625       0.00171015      -2.11117076
I        0.11661697      12.28370155       3.37531001      -0.00124152       0.00230529       0.00800345      -2.14599230
Cs       3.26586579      15.54213509       3.28227012      -0.00204876      -0.00307916      -0.00077185      -3.51809941
Pb       0.01300493      12.45177366       6.40272858      -0.00087749       0.00138249       0.01188035      -4.17022800
I       -3.10865187      19.51495984       6.61569294      -0.00239817       0.00140882      -0.00253332      -2.11367060
I       -0.83079252      15.54646257       6.42318824      -0.00429044       0.00683540       0.00092744      -2.12218986
I       -3.04878021      13.31987752      12.96389698      -0.00616512       0.00570249      -0.00208211      -2.12296721
Cs       3.18227194      15.78890410       9.74577328       0.01053392       0.00786885       0.00323225      -3.47386211
Pb      -0.00308335      18.69927594       0.03179203       0.00000925       0.00040767       0.00001582      -4.40331791
I        3.11853657      19.52016352       0.11972123      -0.00050383       0.00176991       0.00174370      -2.11092647
I       -0.82857508      21.81592790      -0.15197876      -0.00153536      -0.00134682      -0.00206760      -2.11138424
I       -0.09492815      18.90551465       3.28181733      -0.00004967      -0.00751683      -0.00017074      -2.12641644
Cs      -3.24488435      15.65168124       3.27474728       0.01049095      -0.00171947       0.00165269      -3.52035095
Pb       0.01249331      18.70333619       6.52828475      -0.00400317      -0.00280235      -0.00071467      -4.39802989
I        3.13055869      17.87113522       6.43545016      -0.00232426       0.00977963      -0.01389542      -2.11899070
I        0.82515082      21.81501490       6.72035522      -0.00596309      -0.00146363       0.00034675      -2.11635089
I        0.10449750      18.45420811       9.76119178      -0.00151109       0.01305829       0.00105347      -2.11646484
Cs      -3.12018533      15.69731538       9.75481763      -0.01022017       0.01057792       0.00223936      -3.46727548
Pb       0.04294362      12.46817550      13.10624197      -0.00071428       0.00156655      -0.01229749      -4.17107111
I       -3.10334508      17.89557596      12.92410192       0.00183698       0.00697144       0.01792414      -2.11475087
I        0.86392802      15.56241424      13.10256169       0.00895570       0.00702591       0.00129680      -2.11772317
I        0.09964938      12.28236239      16.13427305      -0.00391789       0.00036241      -0.00833063      -2.14600084
Cs       3.27628135      15.56106184      16.24673696      -0.00748392       0.00370364      -0.00801910      -3.51969699
Pb       0.03626941      12.48869787      19.51732498       0.00017352      -0.00002742      -0.00719575      -4.37635352
I       -3.08926315      19.54508713      19.57264957       0.00070112       0.00006296      -0.00091467      -2.11199252
I       -0.78999911      15.59330137      19.28593522      -0.00190331      -0.00147329      -0.00046000      -2.11248194
I       -0.04920354      12.69476882      22.72733072       0.00279419      -0.00062581       0.00101906      -2.13859735
Cs       3.05806755      15.66396268      22.72772576       0.00031898      -0.00347429       0.00208012      -3.52133108
Pb       0.01491024      18.71597204      12.99658411       0.00426297      -0.00236802       0.00173419      -4.39914314
I        3.13799414      19.52270649      13.07895163       0.00338082       0.00317482       0.00113712      -2.11362854
I       -0.80505561      21.82615696      12.81487659       0.00386102      -0.00096941      -0.00267683      -2.11468266
I       -0.07013548      18.92283640      16.24261899       0.00537620      -0.00540805       0.00000495      -2.12518827
Cs      -3.23574463      15.65209356      16.23333483       0.00277627      -0.01033906      -0.00787548      -3.51970320
Pb       0.03193379      18.71836511      19.49102997      -0.00040058       0.00057998       0.00012239      -4.40241552
I        3.15204560      17.88743962      19.40898572      -0.00120345       0.00195873      -0.00045797      -2.11278750
I        0.85005989      21.83588071      19.68810895      -0.00121083      -0.00124582       0.00067589      -2.11258044
I        0.13346800      18.49511464      22.73494749      -0.00302626       0.00045520       0.00049644      -2.12403734
Cs      -2.96490076      15.58004466      22.72711686       0.00011699      -0.00081406       0.00279703      -3.52136359
