159
Lattice="12.468885909578862 12.45567328789723 0.03660330624248233 -12.500938529614729 12.48755672392219 -0.009239974293740398 0.04511830023029706 0.02729054207635215 25.947711814671685" Properties=species:S:1:pos:R:3:forces:R:3:energies:R:1 energy=-454.0744834461332 stress="0.00018316348509734093 0.00010015306230526654 6.125219792693288e-05 0.00010015306230526654 -7.454106975709571e-06 3.5375432896132595e-05 6.125219792693288e-05 3.5375432896132595e-05 0.00039561703806331993" free_energy=-454.0744834461332 pbc="T T T"
Pb       0.02089039      -0.00735590       0.00964642       0.00025388      -0.00038545      -0.00001375      -4.40360898
I       -3.10827389       5.40884722      -0.07006450      -0.00010438      -0.00034093       0.00091235      -2.11078683
I        0.84143454       3.11160758       0.20261072      -0.00072960      -0.00045160       0.00089324      -2.11105509
I        0.12500580      -0.22396876       3.25615035      -0.00177941      -0.00133484       0.00081324      -2.12395097
Cs       3.25496743       3.05237273       3.26396926       0.00155195       0.00114329       0.00073784      -3.52262721
Pb       0.03259669      -0.00261702       6.49512651       0.00034737       0.00001828      -0.00063092      -4.40187205
I       -3.09664694       7.04698568       6.56642823      -0.00025778      -0.00220981      -0.00756987      -2.11439565
I       -0.79375248       3.11431344       6.30709059       0.00042881       0.00003935       0.00012788      -2.11229003
I       -0.04593800       0.21776442       9.75116170       0.00461580       0.00059465       0.00202719      -2.12543018
Cs       3.04194021       3.18260483       9.74133727      -0.00132774       0.00013112      -0.00052751      -3.52103553
Pb       0.01422483       6.22922630       0.01728237       0.00024162      -0.00004412      -0.00011674      -4.40456758
I        3.13565443       7.05260505       0.10408176      -0.00015948       0.00024392      -0.00113875      -2.11055053
I       -0.81450578       9.34767735      -0.16884910       0.00056593       0.00004229      -0.00020776      -2.11105816
I       -0.07303690       6.45401446       3.26125643       0.00385163       0.00106727       0.00017979      -2.12271616
Cs      -3.22405649       3.15970828       3.24868289       0.00002204       0.00012552       0.00040151      -3.52274528
Pb       0.02755911       6.23154196       6.49968792       0.00026519       0.00035853      -0.00065824      -4.40138687
I        3.14516527       5.40380411       6.42143490       0.00035242       0.00038152       0.00291791      -2.11359706
I        0.83581837       9.35553789       6.71742276      -0.00027832      -0.00025031       0.00386390      -2.11362557
I        0.11999322       6.02781242       9.75040103      -0.00289822       0.00119731      -0.00010762      -2.12750611
Cs      -2.95790177       3.09083257       9.73529825       0.00086722      -0.00031229       0.00088124      -3.51906944
Pb       0.02703940       0.01807700      12.98481780      -0.00217441      -0.00043311       0.00017189      -4.37438766
I       -3.08534589       5.43159481      12.90450089       0.00002719       0.00212649       0.00160092      -2.11380280
I        0.86442502       3.12839382      13.17598785      -0.00182953      -0.00231748       0.00051370      -2.11894181
I        0.15961938      -0.21518520      16.21589771      -0.00025707      -0.00257313      -0.00231594      -2.12617084
Cs       3.28421038       3.07055533      16.24327969       0.00539563       0.00181630      -0.00153387      -3.52173711
Pb       0.05613001       0.01252388      19.47132968       0.00102829       0.00095992       0.00008033      -4.40167270
I       -3.07375606       7.06443415      19.57898055       0.00067996      -0.00332807       0.00327218      -2.11612321
I       -0.77046935       3.12807972      19.27494714      -0.00030001      -0.00029860      -0.00112344      -2.11132633
I       -0.03518277       0.23428187      22.71050567       0.00353449       0.00060760      -0.00107747      -2.12409172
Cs       3.05971407       3.18147521      22.72119651      -0.00175670      -0.00324111      -0.00139073      -3.52186562
Pb       0.04379592       6.24021844      12.99189686      -0.00075829       0.00113738       0.00022624      -4.39368497
I        3.17434445       7.06633839      13.07734550      -0.00012357      -0.00121935      -0.00173788      -2.11806791
I       -0.81706961       9.38699643      12.80983321      -0.00070859      -0.00137577       0.00061029      -2.12457127
I       -0.04858880       6.46473122      16.23171187       0.00317919      -0.00071066       0.00039765      -2.12839955
Cs      -3.20416346       3.17722484      16.22713966      -0.00020929      -0.00008839      -0.00080750      -3.51890985
Pb       0.04997496       6.24465341      19.48199014       0.00125325      -0.00103028       0.00045430      -4.40162544
I        3.16761599       5.41730831      19.39191267       0.00077816      -0.00110269       0.00199733      -2.11232134
I        0.86171659       9.36835591      19.66884382       0.00115328      -0.00133960      -0.00068862      -2.11441494
I        0.14983472       6.03158159      22.72039455       0.00013038      -0.00058271      -0.00001747      -2.12284789
Cs      -2.93936400       3.09831286      22.71536881       0.00004041      -0.00083974      -0.00043208      -3.52275639
Pb      -6.22952806       6.23735333       0.00550136      -0.00029325      -0.00007301      -0.00004720      -4.40455043
I       -9.35742979      11.65183642      -0.07470530      -0.00020624      -0.00072500       0.00072093      -2.11130132
I       -5.40820943       9.35673548       0.19807431      -0.00078682       0.00008031       0.00039917      -2.11105933
I       -6.12848979       6.02138914       3.25000651      -0.00410347      -0.00127322       0.00015608      -2.12249274
Cs      -2.99225767       9.29848558       3.26009541       0.00191378       0.00296874      -0.00200650      -3.52243758
Pb      -6.22157737       6.23891412       6.48837159      -0.00107843      -0.00067608      -0.00036385      -4.40151685
I       -9.34454386      13.30249525       6.59271393      -0.00020420      -0.00020946       0.00049014      -2.11218874
I       -7.04316913       9.36091348       6.31091015      -0.00162886      -0.00123004       0.00184853      -2.11409815
I       -6.30659237       6.47124073       9.73916360       0.00271182       0.00134965      -0.00015960      -2.12829782
Cs      -3.20630449       9.34469148       9.69989254       0.00002656      -0.00843143      -0.00366186      -3.51384512
Pb      -6.23644770      12.47281842       0.01065758      -0.00055119       0.00004187      -0.00018720      -4.40147044
I       -3.11504400      13.29577461       0.09954290      -0.00019134      -0.00060060      -0.00120275      -2.11177252
I       -7.06566009      15.58903921      -0.17475136      -0.00030015      -0.00025165      -0.00092565      -2.11079512
I       -6.32340215      12.69677360       3.26043280       0.00013459      -0.00187867      -0.00064437      -2.12567878
Cs      -9.47377156       9.40239718       3.24600822       0.00081993       0.00017657       0.00051409      -3.52134667
Pb      -6.22462018      12.47847279       6.48564435       0.00027135      -0.00098013      -0.00098680      -4.39858695
I       -3.10760142      11.65070654       6.41973576      -0.00052385      -0.00157049      -0.00172096      -2.10851731
I       -5.41759219      15.59519786       6.68790958      -0.00132288       0.00054863      -0.00788670      -2.11149907
I       -6.05654030      12.29487569       9.77217673       0.00774598       0.00230260      -0.00128295      -2.13188703
Cs      -9.21193644       9.32231418       9.72988418       0.00078927       0.00175502       0.00196623      -3.51389216
Pb      -6.21260342       6.25001408      12.97861427       0.00105765       0.00146979      -0.00021427      -4.39311869
I       -9.20823974      11.71483196      12.91708326       0.00029763       0.00044728       0.00401926      -2.13206299
I       -5.36049371       9.40026677      13.17393770      -0.00013889      -0.00054013       0.00094808      -2.12564545
I       -6.10058619       6.04433884      16.22011875      -0.00176158       0.00068391       0.00018994      -2.12821270
Cs      -2.97959192       9.23514672      16.28439721      -0.00170581      -0.00468720       0.00455829      -3.51133121
Pb      -6.19863133       6.25349205      19.47059900      -0.00036876       0.00012397       0.00059247      -4.40087485
I       -9.31860214      13.31784524      19.54189964       0.00093013       0.00008790      -0.00668798      -2.11435686
I       -7.01469233       9.37674195      19.26160306       0.00097259       0.00009352      -0.00358906      -2.11438334
I       -6.29042891       6.48085197      22.70870367       0.00001852       0.00129442      -0.00027481      -2.12259392
Cs      -3.18644470       9.42827582      22.71737412      -0.00160144      -0.00000874       0.00172118      -3.52210365
Pb      -6.28179193      12.46758181      12.97550475       0.00767953       0.00248268      -0.00127820      -4.17116933
I       -7.00888979      15.58153363      12.79138345      -0.00224208       0.00259189      -0.00081121      -2.11734411
I       -6.20094956      12.74917956      16.19165903       0.01700531       0.00706291      -0.00052616      -2.13829650
Cs      -9.45913036       9.39466367      16.23383460      -0.00078874      -0.00387793      -0.00061586      -3.51192082
Pb      -6.19505913      12.49237066      19.48014841       0.00184983       0.00038353      -0.00055974      -4.39796477
I       -3.08146882      11.66737549      19.38188018       0.00095740      -0.00233442       0.00594409      -2.10783470
I       -5.37823651      15.60913574      19.66657886      -0.00064959       0.00131048       0.00489327      -2.11324633
I       -6.10035742      12.27774707      22.70699069      -0.00322929      -0.00036759      -0.00035536      -2.12639211
Cs      -9.19130171       9.34209963      22.70980061       0.00014090       0.00007287      -0.00064711      -3.52093391
Pb       6.25521487       6.22109548       0.02861299      -0.00037447       0.00009750      -0.00011929      -4.40457173
I        3.12483541      11.63591590      -0.05098550      -0.00001084      -0.00069898       0.00121746      -2.11141719
I        7.07698822       9.33923199       0.22183497      -0.00019127       0.00009904       0.00093527      -2.11042791
I        6.36012678       6.00348224       3.27282549      -0.00241969       0.00139611      -0.00054583      -2.12242349
Cs       9.49278612       9.27860931       3.28486449       0.00149918       0.00240777       0.00059714      -3.52132759
Pb       6.26409017       6.22821827       6.51023080      -0.00009584       0.00129181      -0.00175717      -4.40149940
I        3.13153695      13.28659588       6.62101285      -0.00064880      -0.00011431       0.00275546      -2.11346036
I        5.43900837       9.34306345       6.32659840      -0.00189699       0.00108307       0.00024921      -2.11386061
I        6.20158934       6.42531261       9.76302759       0.00737334      -0.00229870      -0.00105227      -2.12651694
Cs       9.27609969       9.40521538       9.75993682      -0.00149190       0.00083366      -0.00030148      -3.51635864
Pb       6.24864387      12.45608319       0.03584545      -0.00033385      -0.00034887      -0.00004722      -4.40350892
I        9.36987788      13.27930338       0.12269765      -0.00016623      -0.00054837      -0.00105708      -2.11123394
I        5.42069113      15.57409436      -0.15106341       0.00055943      -0.00049941      -0.00086368      -2.11109810
I        6.15735153      12.67894031       3.28267327       0.00077638       0.00009924       0.00105337      -2.12461705
Cs       3.01072062       9.38721242       3.26794469      -0.00076576       0.00069792       0.00051942      -3.52115745
Pb       6.25647994      12.46238368       6.52214424      -0.00137199       0.00115587      -0.00009092      -4.40181952
I        9.37777255      11.63097376       6.44342745      -0.00042751       0.00069097       0.00351745      -2.11366487
I        7.07461484      15.57896394       6.72642956       0.00027594      -0.00012217       0.00144808      -2.11168058
I        6.34202196      12.23920179       9.77758833      -0.00378461      -0.00159699       0.00223880      -2.12641430
Cs       3.28476914       9.29281853       9.74819992       0.00256258      -0.00403033       0.00074279      -3.51308110
Pb       6.29827303       6.23094397      13.00454898       0.00110100      -0.00244231       0.00027283      -4.39434283
I        3.02165020      11.70457987      12.90611576      -0.00053946       0.00116356      -0.00303637      -2.13113324
I        7.08993572       9.35497806      13.19591672      -0.00134587       0.00073756      -0.00048908      -2.12037020
I        6.39517531       6.00638346      16.24345870      -0.00292494       0.00028264       0.00080382      -2.12583018
Cs       9.51509883       9.29819947      16.26253708       0.00129564       0.00370784       0.00033875      -3.51748181
Pb       6.28723487       6.24030237      19.49253470      -0.00051343       0.00130456       0.00064038      -4.40244502
I        3.15812490      13.30229714      19.57079757       0.00066288       0.00034465      -0.00402647      -2.11275826
I        5.46431667       9.35561003      19.29224548      -0.00172217       0.00089793      -0.00161435      -2.11208854
I        6.19879806       6.45975412      22.73119364       0.00192402       0.00192522       0.00003435      -2.12299237
Cs       9.29814135       9.40754994      22.73663286      -0.00180404      -0.00145599      -0.00018420      -3.52185112
Pb       6.28793429      12.48175232      13.01079683       0.00214518      -0.00037072       0.00015026      -4.37429194
I        9.39268126      13.27093226      13.09545756      -0.00006282      -0.00507612      -0.00177768      -2.12761942
I        5.44373516      15.59263440      12.82413706       0.00210920      -0.00192743      -0.00035951      -2.11929012
I        6.16975836      12.68838161      16.24218625      -0.00106075      -0.00006239      -0.00201729      -2.12606927
Cs       3.02391532       9.39459892      16.25264639      -0.00262607       0.00219303      -0.00171655      -3.51591177
Pb       6.28102057      12.47437536      19.49841207      -0.00028603       0.00011473       0.00052059      -4.40191377
I        9.40270172      11.64628946      19.40822121       0.00060511       0.00086664       0.00128276      -2.11297937
I        7.09890036      15.59311674      19.69343340      -0.00021976       0.00008159      -0.00056442      -2.11208748
I        6.38119417      12.25727291      22.73721073      -0.00221233      -0.00067349      -0.00080451      -2.12415134
Cs       3.29461134       9.32554001      22.73171500      -0.00033489      -0.00059767      -0.00040507      -3.52148377
Pb       0.00507003      12.46501933       0.02722295       0.00045236       0.00003779       0.00045542      -4.40137968
I       -3.12423967      17.88104709      -0.05610167      -0.00010981       0.00029814       0.00083057      -2.11109475
I        0.82681246      15.58229859       0.21774786       0.00007867      -0.00016411       0.00138508      -2.11078213
I        0.10584561      12.25209545       3.28069035      -0.00067237      -0.00143207       0.00074505      -2.12593002
Cs       3.24667834      15.52379718       3.27766432       0.00167086       0.00091989       0.00140044      -3.52195119
Pb       0.00886250      12.46889120       6.50670401      -0.00175645      -0.00018326       0.00109019      -4.39651803
I       -3.11194851      19.51912202       6.61387952       0.00022028       0.00014596      -0.00141376      -2.11250470
I       -0.81270641      15.58590009       6.31685685       0.00212854       0.00084353      -0.00713392      -2.11478734
I       -0.17533614      12.72801140       9.79574508      -0.01360053       0.00622345       0.00040443      -2.13958142
Cs       3.02641776      15.65107245       9.75632308      -0.00397634      -0.00124557       0.00220011      -3.52011384
Pb      -0.00177168      18.70045099       0.03016654       0.00025876       0.00010502       0.00000625      -4.40427085
I        3.11915932      19.52418607       0.11841268      -0.00018493       0.00019680      -0.00097101      -2.11064524
I       -0.83089616      21.81755450      -0.15688718       0.00002865       0.00000241      -0.00116601      -2.11048966
I       -0.09421689      18.92183926       3.27527384       0.00162422       0.00230574      -0.00006014      -2.12345996
Cs      -3.23758872      15.63425989       3.25745994      -0.00025272      -0.00008700      -0.00288965      -3.52269743
Pb       0.01078319      18.70690785       6.51338079       0.00045158       0.00105657      -0.00093223      -4.40140978
I        3.12800887      17.87395010       6.43532594      -0.00036220      -0.00090611       0.00310020      -2.11307007
I        0.82498341      21.82255119       6.72273910       0.00138562       0.00055813       0.00169860      -2.11241148
I        0.08806529      18.47138405       9.76369564      -0.00310200      -0.00068317      -0.00063867      -2.12905216
Cs      -2.97178465      15.65238840       9.65061199      -0.00267868       0.01365500      -0.01406540      -3.45309393
Pb       0.09543563      12.45443222      13.00255481      -0.00768133       0.00135634       0.00042270      -4.17169700
I       -3.10186742      17.75097058      12.93179144      -0.00035806      -0.01003055       0.00341024      -2.14015944
I        0.80790586      15.57224038      13.20269341       0.00084234       0.00190884       0.00110161      -2.11810173
I        0.07005286      12.28478630      16.21413725      -0.00871174      -0.00029400       0.00119227      -2.13013111
Cs       3.26295835      15.54735122      16.25637517       0.00055942       0.00276663       0.00051321      -3.52121404
Pb       0.03539133      12.48562924      19.49989356      -0.00008188      -0.00104659       0.00137457      -4.39941632
I       -3.09045029      19.53656563      19.56685115       0.00010881       0.00074821      -0.00228484      -2.11161951
I       -0.78485024      15.59938254      19.29261435       0.00091609       0.00048982       0.00550379      -2.11116930
I       -0.05674680      12.70860228      22.72613594       0.00349935      -0.00067122       0.00094439      -2.12550784
Cs       3.05186163      15.65428810      22.73511712      -0.00140059      -0.00244987      -0.00072487      -3.52229904
Pb      -0.00072363      18.70906993      13.00472645      -0.00164247      -0.00293161       0.00030819      -4.39459544
I        3.12582322      19.53577359      13.09013809      -0.00035400      -0.00237420      -0.00156152      -2.11836511
I       -0.79727982      21.83246539      12.81523985       0.00138849       0.00053639      -0.00031942      -2.12082126
I       -0.09662470      18.91164277      16.24384619      -0.00162651      -0.00149823       0.00095071      -2.12595060
Cs      -3.21942455      15.70334720      16.31311195       0.00240821       0.00425561       0.01080858      -3.44707962
Pb       0.03159354      18.71936855      19.49541772      -0.00016720       0.00117742       0.00113711      -4.40192611
I        3.15076943      17.89064577      19.40446389      -0.00010412       0.00079634       0.00109791      -2.11325748
I        0.84865045      21.83658099      19.68744588       0.00174028       0.00105315      -0.00041601      -2.11394144
I        0.13052489      18.49834937      22.73334624      -0.00099803       0.00074690       0.00037151      -2.12334172
Cs      -2.95801478      15.57439136      22.73204310       0.00024424      -0.00058855       0.00232620      -3.52279922
159
Lattice="12.468885909578862 12.45567328789723 0.03660330624248233 -12.500938529614729 12.48755672392219 -0.009239974293740398 0.04511830023029706 0.02729054207635215 25.947711814671685" Properties=species:S:1:pos:R:3:forces:R:3:energies:R:1 energy=-454.03829755933486 stress="0.0001703644338166947 9.010384702565543e-05 1.9570375411746893e-05 9.010384702565543e-05 -5.2878633593274245e-05 3.8123162215490376e-05 1.9570375411746893e-05 3.8123162215490376e-05 0.0005301581439447439" free_energy=-454.03829755933486 pbc="T T T"
Pb       0.01770889      -0.00764427       0.00934435      -0.00095604       0.00022033      -0.00009188      -4.40278910
I       -3.10851760       5.40942098      -0.05949366      -0.00003016       0.00038639       0.00234692      -2.11293030
I        0.83769277       3.11167580       0.21250899       0.00041608      -0.00017996       0.00215393      -2.11138509
I        0.10433025      -0.23156907       3.25553037      -0.00379077      -0.00101964       0.00061619      -2.12528960
Cs       3.26238610       3.06323601       3.26652923       0.00082290       0.00456364       0.00056009      -3.52649914
Pb       0.01566899      -0.00228357       6.49122998      -0.00360706       0.00148774      -0.00003863      -4.40042811
I       -3.10585672       7.04397258       6.55896453      -0.00194411      -0.00039425      -0.00042630      -2.11324334
I       -0.79156311       3.12230794       6.30722566      -0.00046270       0.00135997       0.00102229      -2.11237499
I       -0.02704524       0.21339421       9.75342985       0.00205831      -0.00108692      -0.00009315      -2.13272924
Cs       3.02655392       3.15094325       9.73925505      -0.00050341      -0.00309732      -0.00121384      -3.52093569
Pb       0.01674055       6.22832819       0.02635758       0.00072224      -0.00039225       0.00143629      -4.40237097
I        3.13452694       7.05595023       0.09990030      -0.00001547       0.00155269       0.00105741      -2.10850244
I       -0.81056932       9.35263172      -0.13922209       0.00149237      -0.00016039       0.00024257      -2.11656159
I       -0.04751558       6.46970666       3.27508995       0.00322555       0.00167019       0.00143138      -2.12650490
Cs      -3.22842395       3.15610147       3.25416306      -0.00163237      -0.00108339       0.00155283      -3.52063030
Pb       0.01890919       6.24403404       6.51533414      -0.00129600       0.00176537       0.00312626      -4.39956330
I        3.13838678       5.41996965       6.44409753      -0.00012974       0.00108067       0.00428112      -2.11448278
I        0.81007315       9.37356160       6.80147638      -0.00802946      -0.00046563       0.00895012      -2.11636975
I        0.11627943       6.02176485       9.76337359      -0.00219926      -0.00378114       0.00103010      -2.12678685
Cs      -2.94722736       3.08760994       9.73997360      -0.00039519      -0.00179767       0.00186204      -3.51902263
Pb       0.03198890       0.00500349      12.99094717      -0.00129510       0.00152529       0.00176039      -4.37243562
I       -3.07944434       5.42639033      12.91333633       0.00112752      -0.00102586       0.00264856      -2.11562339
I        0.86669659       3.11269537      13.18480948      -0.00403238       0.00076059       0.00175361      -2.11785960
I        0.14933343      -0.22879673      16.21715804      -0.00424068      -0.00158051       0.00137012      -2.12507519
Cs       3.30489952       3.07328660      16.24173892       0.00333230       0.00223660      -0.00121587      -3.52339637
Pb       0.05921161       0.01307547      19.47105808       0.00006274       0.00014748      -0.00023546      -4.40107584
I       -3.07003553       7.05301476      19.59471827       0.00048095      -0.00086267       0.00198607      -2.11610942
I       -0.76945518       3.12578570      19.27747493      -0.00078604      -0.00024045      -0.00000714      -2.11089725
I       -0.02049239       0.23906086      22.71030574       0.00141651       0.00152667      -0.00026584      -2.12576063
Cs       3.05298055       3.16387816      22.71850493      -0.00017350      -0.00340268      -0.00013012      -3.52273362
Pb       0.04796456       6.22904883      13.00616681      -0.00133544       0.00293765       0.00027509      -4.39575948
I        3.18190714       7.05718106      13.07797755       0.00021250       0.00207711      -0.00073448      -2.12129589
I       -0.80162524       9.37084495      12.87610911      -0.00662643       0.00412814      -0.00726815      -2.11583413
I       -0.03047785       6.44624249      16.24538064       0.00068855       0.00204898       0.00068969      -2.12468655
Cs      -3.20115489       3.17071058      16.22582182      -0.00059200      -0.00292127      -0.00046498      -3.51850673
Pb       0.05647637       6.23988353      19.49227027       0.00065784      -0.00065521       0.00027670      -4.40338588
I        3.17018185       5.41060419      19.40972057       0.00052121      -0.00229033       0.00302308      -2.11005349
I        0.86817746       9.36569841      19.67679648       0.00148905      -0.00125428      -0.00287555      -2.11434902
I        0.14583130       6.03024065      22.73289423      -0.00017319      -0.00028619       0.00179316      -2.12228498
Cs      -2.93817707       3.09692724      22.71643507      -0.00060714       0.00075429       0.00057163      -3.52191998
Pb      -6.23385962       6.23227933       0.00597768      -0.00103459      -0.00097345       0.00131490      -4.40454257
I       -9.36285898      11.65218074      -0.07629051      -0.00137662       0.00008175      -0.00153756      -2.11096269
I       -5.41911080       9.35440821       0.19192776      -0.00129271      -0.00014609      -0.00055728      -2.11230686
I       -6.14480664       6.00742026       3.25058941      -0.00192993      -0.00109421       0.00086982      -2.12242683
Cs      -2.99461385       9.27205937       3.23645667       0.00025921      -0.00248112      -0.00198164      -3.52039634
Pb      -6.22757244       6.23656748       6.48604432      -0.00199942      -0.00050260       0.00168272      -4.40102407
I       -9.37020557      13.30040483       6.56369335      -0.00252095       0.00163902      -0.00292114      -2.10879400
I       -7.07266589       9.34653616       6.30432126      -0.00384733      -0.00110632       0.00102360      -2.11158533
I       -6.31830041       6.45792190       9.74087850       0.00216615       0.00337922       0.00067534      -2.13252790
Cs      -3.22733607       9.34022277       9.72572382       0.00502180       0.00901854      -0.00720816      -3.53185075
Pb      -6.24466373      12.47220836       0.00554084      -0.00165264      -0.00035988      -0.00058875      -4.40258285
I       -3.11577789      13.28857639       0.11708208      -0.00048910      -0.00259799      -0.00104682      -2.11724472
I       -7.06515316      15.59157950      -0.17882288       0.00027893       0.00048892      -0.00034074      -2.11217119
I       -6.35458018      12.66978131       3.24208034      -0.00590299      -0.00188197      -0.00116829      -2.11537864
Cs      -9.48001245       9.40481708       3.23737045      -0.00254249       0.00011749      -0.00101439      -3.52439991
Pb      -6.25402376      12.45802385       6.46617731      -0.00116521      -0.00122114      -0.00177716      -4.40438117
I       -3.15102333      11.60831854       6.33701450      -0.00557711      -0.00004916      -0.00736656      -2.09812023
I       -5.47709341      15.58993098       6.57772828       0.00209695      -0.00086818       0.00229952      -2.11486189
I       -6.17576503      12.27550197       9.74961974       0.00325112       0.00004115       0.00179839      -2.12485232
Cs      -9.21243303       9.34585064       9.74293498      -0.00133259       0.00239096       0.00271914      -3.51977407
Pb      -6.20277056       6.25511671      12.98398671       0.00219294       0.00099004       0.00010030      -4.39065466
I       -9.19220248      11.72734224      12.96592421      -0.00368461      -0.00101764       0.00692049      -2.12816643
I       -5.35669772       9.40484943      13.18444869       0.00064724       0.00158363      -0.00010813      -2.12910892
I       -6.10586100       6.04075671      16.22325453       0.00072221       0.00039411       0.00076388      -2.12967030
Cs      -2.98677630       9.22743492      16.31392317       0.00103048       0.00078762       0.00148249      -3.51435144
Pb      -6.19728063       6.25435192      19.47568566       0.00053604      -0.00071331       0.00010354      -4.40026813
I       -9.31335344      13.31409935      19.51433853       0.00090592      -0.00107641      -0.00555010      -2.11566148
I       -7.00594717       9.37955230      19.24573775       0.00293986       0.00057383      -0.00269925      -2.11548900
I       -6.28786493       6.48537877      22.71028944       0.00055851      -0.00029226       0.00090664      -2.12234762
Cs      -3.18771826       9.41901839      22.73952009       0.00070096      -0.00127621       0.00199572      -3.52097938
Pb      -6.26356094      12.47847482      12.95749602      -0.00365480      -0.00014049       0.00334681      -4.17460593
I       -7.01392306      15.58740119      12.78414218      -0.00327693      -0.00121441      -0.00193715      -2.11798206
I       -6.12195938      12.77494875      16.18168008       0.01211296       0.00413501      -0.00066426      -2.13862185
Cs      -9.46159149       9.38192515      16.23377123      -0.00147703      -0.00436794       0.00189489      -3.51054278
Pb      -6.18663389      12.49524610      19.47235457       0.00133496       0.00100931      -0.00004726      -4.39619973
I       -3.07418548      11.65907321      19.42803728       0.00053821      -0.00070590       0.00457634      -2.11034418
I       -5.38346301      15.61447364      19.69420741      -0.00037781       0.00092030       0.00536451      -2.11491638
I       -6.11731840      12.27495876      22.69797156      -0.00275669      -0.00145610      -0.00069333      -2.12491436
Cs      -9.18889517       9.34437582      22.70756174       0.00151523      -0.00028162      -0.00062766      -3.52209738
Pb       6.25268420       6.22628257       0.02383546      -0.00037831       0.00135995       0.00028426      -4.40621144
I        3.11970315      11.63122907      -0.01332034      -0.00034579      -0.00063295       0.00088627      -2.11325216
I        7.07703725       9.34214217       0.22775863       0.00072834       0.00091168       0.00098550      -2.10884178
I        6.34313244       6.03467215       3.26649641      -0.00113417       0.00083931       0.00055481      -2.11663275
Cs       9.50296468       9.29653675       3.28431694      -0.00052711       0.00113755       0.00047505      -3.51929644
Pb       6.25130374       6.24009491       6.48638478       0.00062729      -0.00070095       0.00119975      -4.39053624
I        3.07656926      13.26988099       6.77293857      -0.00155145      -0.00421693       0.01164585      -2.11676917
I        5.42526467       9.35057533       6.32748018      -0.00155102      -0.00050000       0.00215317      -2.11836098
I        6.25291898       6.39499582       9.76195055       0.00576383      -0.00273547       0.00080063      -2.15241604
Cs       9.29615502       9.42885708       9.76426801       0.00310080      -0.00101702      -0.00031747      -3.51373850
Pb       6.24312811      12.45606270       0.04507821      -0.00062725       0.00041076       0.00115423      -4.40188418
I        9.36455682      13.27677225       0.12260074      -0.00099798       0.00127184      -0.00028437      -2.11277908
I        5.41672335      15.57173189      -0.14989589      -0.00236219      -0.00052548       0.00099414      -2.10849330
I        6.13156329      12.68877404       3.29707696      -0.00408005       0.00023660       0.00179082      -2.13041267
Cs       2.98861915       9.38840749       3.28656542      -0.00628232       0.00087786       0.00474619      -3.51943859
Pb       6.22318702      12.47488833       6.54219521      -0.00375120       0.00075993       0.00265030      -4.39903987
I        9.34822174      11.64662006       6.44797002      -0.00310120       0.00174736      -0.00007808      -2.11291195
I        7.06624283      15.57907651       6.74105764      -0.00151232      -0.00029852       0.00157315      -2.11384647
I        6.37028125      12.23319093       9.78399149       0.00432078      -0.00236601       0.00095770      -2.11850859
Cs       3.35413485       9.19750380       9.73949089      -0.00081067       0.00026529       0.00043438      -3.49109116
Pb       6.30255272       6.22792578      13.02447831       0.00055984      -0.00116114       0.00066962      -4.38817647
I        2.98460779      11.72194741      12.76379429      -0.01289803       0.00924871      -0.00618136      -2.14178656
I        7.09149678       9.35138349      13.19301535      -0.00296435      -0.00129223       0.00097955      -2.12203490
I        6.36451868       6.00811670      16.24990169      -0.00147265      -0.00272939       0.00111158      -2.12321082
Cs       9.52752032       9.30982384      16.26098752       0.00019095       0.00036042      -0.00067367      -3.51798026
Pb       6.28311528       6.24777667      19.49863700      -0.00050484       0.00123230       0.00072752      -4.40359942
I        3.15779531      13.30472519      19.57174812       0.00105953       0.00094866      -0.00033473      -2.11345387
I        5.45396923       9.35841261      19.28761610      -0.00317469      -0.00029091      -0.00280817      -2.10975074
I        6.21045012       6.47438216      22.73168371       0.00106422       0.00454373       0.00076386      -2.12252618
Cs       9.29004656       9.40304934      22.73695454      -0.00147682      -0.00111311      -0.00012462      -3.52073994
Pb       6.28024712      12.47396195      13.00571016      -0.00459908      -0.00095699       0.00026662      -4.36938685
I        9.39009684      13.24529966      13.09349967      -0.00718832      -0.00470698       0.00174096      -2.12722622
I        5.47253294      15.59191592      12.83779284       0.00225322       0.00052193       0.00073620      -2.11716497
I        6.15216166      12.67888930      16.24179640      -0.00573160      -0.00341409      -0.00005169      -2.12998363
Cs       3.01248405       9.41692072      16.23181538      -0.00381770       0.00784939      -0.00481220      -3.51343807
Pb       6.27900533      12.47240910      19.50253408      -0.00128880      -0.00105682      -0.00005913      -4.40030183
I        9.40301239      11.64993296      19.41775438      -0.00052853      -0.00038603       0.00100008      -2.11419505
I        7.09667143      15.59256430      19.69333783      -0.00016817      -0.00100495      -0.00048018      -2.11211955
I        6.36394413      12.25382969      22.74377504      -0.00223953      -0.00030887       0.00076471      -2.12633823
Cs       3.29565483       9.33289187      22.74422624      -0.00098298       0.00202422      -0.00066157      -3.52298494
Pb       0.00775758      12.46934798       0.08625221       0.00060542      -0.00070486       0.01083351      -4.38880236
I       -3.12542381      17.88470725      -0.04647702      -0.00039443       0.00004158       0.00124591      -2.11217139
I        0.82992606      15.58316435       0.24845871      -0.00077565      -0.00024232       0.00026512      -2.11295507
I        0.12551120      12.29121553       3.40900482       0.00192207      -0.00114993      -0.01593984      -2.12720348
Cs       3.24079424      15.50051941       3.31547815      -0.00495329      -0.00739973       0.00558323      -3.52068530
Pb      -0.08230522      12.47901561       6.62247135      -0.00179411       0.00256824       0.00844848      -4.37049456
I       -3.11517337      19.51880926       6.61720314      -0.00087545       0.00200540      -0.00109106      -2.12198205
I       -0.83882518      15.59392645       6.34570554      -0.00096055       0.00492375      -0.00872294      -2.11527703
I       -0.88205698      12.77958146       9.95498002       0.11291970      -0.00604928      -0.06135841      -2.13980919
Cs       3.06933871      15.72828214       9.79036270      -0.01161027      -0.00374415       0.00658884      -3.49683939
Pb      -0.00152821      18.70191067       0.03763176      -0.00039197       0.00091347       0.00084594      -4.40420280
I        3.11774548      19.52356213       0.11265949      -0.00058319       0.00039009      -0.00095871      -2.10919608
I       -0.83095002      21.81707274      -0.16131731      -0.00093608       0.00058516      -0.00107194      -2.11068563
I       -0.09101862      18.92469229       3.28448538      -0.00017054       0.00353631      -0.00059915      -2.12385575
Cs      -3.22265092      15.63425657       3.25227072      -0.00113125      -0.00055593      -0.00250950      -3.52370660
Pb       0.01508572      18.71323853       6.51776570      -0.00111903       0.00050055      -0.00003052      -4.39694873
I        3.12215086      17.86357541       6.44106228      -0.00096461      -0.00151190       0.00254830      -2.11535540
I        0.81750103      21.82571404       6.72611445      -0.00027421       0.00259011       0.00165801      -2.11095143
I        0.09643446      18.49213893       9.77410230      -0.00411544       0.00391331      -0.00007565      -2.13590156
Cs      -3.13876415      15.99610985       9.57053539       0.00891092      -0.01485553       0.00169419      -3.47096279
Pb       0.04611991      12.46146657      13.01274130      -0.00666762       0.00376190      -0.00986788      -4.14965272
I       -3.09227192      17.75709102      13.01919055      -0.00089748      -0.00550762       0.00005496      -2.14318006
I        0.85743737      15.56207373      13.19945657      -0.00324848       0.00280078      -0.00147166      -2.11925007
I        0.05784893      12.29701937      16.23941029       0.00383310       0.00472390      -0.00796245      -2.13427216
Cs       3.28057105      15.55905316      16.27065778      -0.00366633       0.00073566      -0.00086242      -3.51853466
Pb       0.03906382      12.48050933      19.53948548       0.00151440      -0.00065301      -0.00551836      -4.39300922
I       -3.09074212      19.53984257      19.55309744       0.00013392       0.00046056      -0.00258995      -2.11312874
I       -0.77660413      15.59640117      19.33823675       0.00095421       0.00021135       0.00703043      -2.11391012
I       -0.02943403      12.69719837      22.78822322       0.00389582      -0.00284169      -0.00586719      -2.12747666
Cs       3.04416959      15.64740183      22.74351355      -0.00217834      -0.00152580       0.00073029      -3.52330182
Pb       0.01460254      18.68837818      13.02092775      -0.00150962       0.00083912       0.00106133      -4.39390445
I        3.13567398      19.53020272      13.08617780       0.00060906      -0.00114909      -0.00025403      -2.11929484
I       -0.77791527      21.81546337      12.81910492      -0.00006886       0.00390910       0.00278897      -2.11972023
I       -0.07243351      18.90370644      16.25679272       0.00312754      -0.00257504       0.00205836      -2.12542229
Cs      -3.21242390      15.71026631      16.37064319       0.00224638       0.00250256       0.00581180      -3.44847404
Pb       0.03251594      18.72260990      19.50803115       0.00079634      -0.00006152       0.00174657      -4.40145498
I        3.15152713      17.89659099      19.42281127       0.00070089      -0.00086830       0.00147272      -2.11256199
I        0.85188637      21.83740670      19.69051442       0.00085071       0.00024532       0.00085628      -2.11436811
I        0.12452684      18.49878803      22.74449090      -0.00156298       0.00025773       0.00203637      -2.12218350
Cs      -2.95735282      15.56754495      22.75242666       0.00141849      -0.00213118       0.00345267      -3.52080086
159
Lattice="12.468885909578862 12.45567328789723 0.03660330624248233 -12.500938529614729 12.48755672392219 -0.009239974293740398 0.04511830023029706 0.02729054207635215 25.947711814671685" Properties=species:S:1:pos:R:3:forces:R:3:energies:R:1 energy=-453.8860996864679 stress="0.00011348740861828841 8.02201674198207e-05 -6.201927563047243e-06 8.02201674198207e-05 -0.00014514907205415538 4.2475789552064566e-05 -6.201927563047243e-06 4.2475789552064566e-05 0.0005531600786854403" free_energy=-453.8860996864679 pbc="T T T"
Pb       0.01720425      -0.00739765       0.00780483      -0.00098487       0.00020590      -0.00003072      -4.40216671
I       -3.10867468       5.40967294      -0.06033705      -0.00016580       0.00022888       0.00163263      -2.11298017
I        0.83613529       3.11234836       0.21215556       0.00013057      -0.00034224       0.00169290      -2.11190416
I        0.09997222      -0.23220968       3.25339148      -0.00516649      -0.00093173      -0.00047559      -2.12501295
Cs       3.26500975       3.06290897       3.26263581       0.00146536       0.00542993      -0.00095861      -3.52685157
Pb       0.01575227      -0.00241595       6.48745103      -0.00372233       0.00094731      -0.00065529      -4.39961520
I       -3.10475771       7.04223848       6.55904686      -0.00085854      -0.00060467       0.00129094      -2.11364024
I       -0.79279334       3.12215553       6.30729081      -0.00075542       0.00114521       0.00156205      -2.11341162
I       -0.01929020       0.20706932       9.75065184       0.00475669      -0.00239123       0.00001697      -2.13678501
Cs       3.03109366       3.13371350       9.73693847      -0.00015911      -0.00519485      -0.00256728      -3.52386702
Pb       0.01584395       6.22782159       0.02734970       0.00075765      -0.00012157       0.00163204      -4.40203642
I        3.13415836       7.05372912       0.09464749       0.00018985       0.00161834       0.00061842      -2.10933005
I       -0.81237897       9.35659671      -0.13102564       0.00108859      -0.00050481       0.00303978      -2.11760202
I       -0.04952523       6.46841178       3.27547148       0.00335110       0.00127456       0.00108959      -2.12541920
Cs      -3.22757398       3.15497929       3.25214951      -0.00089568      -0.00129504       0.00178142      -3.52052196
Pb       0.01838340       6.24036878       6.51553163      -0.00078218       0.00124015       0.00281087      -4.39887222
I        3.13842624       5.41948398       6.44448493      -0.00022873       0.00058648       0.00411671      -2.11410639
I        0.82847469       9.37485275       6.78522963      -0.00435336       0.00009630       0.00649343      -2.11988386
I        0.12254520       6.02238937       9.76208264      -0.00004320      -0.00394750       0.00217441      -2.12684505
Cs      -2.94044504       3.08368155       9.74248654       0.00096362      -0.00335076       0.00192842      -3.51778914
Pb       0.05232561      -0.00342175      12.99312451      -0.00273433       0.00230440       0.00172402      -4.37348307
I       -3.07438495       5.42568112      12.91153361       0.00363471      -0.00165407       0.00240383      -2.11683593
I        0.87951351       3.10133751      13.18344467      -0.00327333      -0.00031770       0.00150193      -2.11609768
I        0.15223817      -0.23181808      16.21867914      -0.00470131      -0.00124171       0.00174774      -2.12516229
Cs       3.31450238       3.06650632      16.24135458       0.00448876       0.00206905      -0.00272407      -3.52493545
Pb       0.06021568       0.01267267      19.47153346      -0.00003075       0.00003494      -0.00051687      -4.40075303
I       -3.06929049       7.05178139      19.59604484       0.00058284      -0.00124353       0.00188453      -2.11634004
I       -0.76886213       3.12538208      19.28123275      -0.00077604      -0.00037121       0.00023719      -2.11075484
I       -0.02058553       0.23855538      22.71033087       0.00176065       0.00161798      -0.00082018      -2.12577416
Cs       3.05313677       3.16343212      22.71840296       0.00004413      -0.00363045      -0.00043211      -3.52288352
Pb       0.05664700       6.22289793      13.00904445       0.00003538      -0.00094308       0.00063466      -4.39906038
I        3.19169958       7.04387447      13.08255362      -0.00026701       0.00240124       0.00050811      -2.11911049
I       -0.76265639       9.35161557      12.89860464      -0.00450873       0.00684425       0.00276435      -2.10800503
I       -0.02755240       6.43362640      16.24834434       0.00106230       0.00129534       0.00012184      -2.12272534
Cs      -3.19780615       3.16936032      16.22618064       0.00021227      -0.00404397      -0.00079688      -3.51930393
Pb       0.05755188       6.23864590      19.49279528       0.00109769      -0.00040717      -0.00004586      -4.40372359
I        3.17101792       5.41024173      19.41106633       0.00079705      -0.00271010       0.00257227      -2.10964050
I        0.86869911       9.36834780      19.66970753       0.00163357      -0.00237630      -0.00417989      -2.11545524
I        0.14545301       6.03296220      22.73446195       0.00002193       0.00064414       0.00173473      -2.12218838
Cs      -2.93769949       3.09674416      22.71666191      -0.00060019       0.00081264       0.00015503      -3.52195663
Pb      -6.23336245       6.23263020       0.00382063      -0.00092576      -0.00110944       0.00106642      -4.40377330
I       -9.36273492      11.65390097      -0.07939564      -0.00125129       0.00047133      -0.00170755      -2.11198206
I       -5.41924203       9.35381180       0.18833588      -0.00134686      -0.00015951      -0.00122461      -2.11260433
I       -6.13957738       6.00502289       3.24861549      -0.00051437      -0.00157801       0.00046551      -2.12330917
Cs      -3.00677390       9.26946761       3.24211221      -0.00119624      -0.00374786      -0.00266808      -3.52114506
Pb      -6.22476890       6.23896673       6.47946330      -0.00056997      -0.00045828       0.00073470      -4.39825854
I       -9.37210737      13.29864961       6.53889140      -0.00314685       0.00149370      -0.00617082      -2.10683282
I       -7.07493109       9.34238452       6.29021430      -0.00531273      -0.00158585      -0.00030143      -2.10920465
I       -6.33027700       6.44526909       9.73949664      -0.00029830       0.00192188       0.00072610      -2.14261785
Cs      -3.25453105       9.30594128       9.75547803       0.00013801       0.00241152      -0.00551361      -3.53961548
Pb      -6.24478736      12.47105993      -0.00182765      -0.00140327      -0.00033174      -0.00073076      -4.40266065
I       -3.11250786      13.28908132       0.11799688      -0.00133352      -0.00174962      -0.00014922      -2.11803611
I       -7.06354699      15.59174380      -0.17862809       0.00061427       0.00046105      -0.00069836      -2.11292392
I       -6.34752231      12.66141727       3.23191892      -0.00371032      -0.00128037      -0.00120036      -2.11356614
Cs      -9.48331854       9.40753852       3.23128607      -0.00332586       0.00053256      -0.00181869      -3.52513693
Pb      -6.25982710      12.45137945       6.46055971      -0.00267612      -0.00232942      -0.00235785      -4.40618924
I       -3.14512169      11.59046743       6.36023285      -0.00829191      -0.00586647      -0.01688040      -2.10070106
I       -5.49147248      15.58700918       6.55682571      -0.00018187      -0.00152290      -0.00072319      -2.11726520
I       -6.29335376      12.24195756       9.72716341       0.00004296      -0.00143499       0.00311072      -2.11193791
Cs      -9.22174301       9.35407438       9.74909300      -0.00439961       0.00158167       0.00306639      -3.52543009
Pb      -6.19631855       6.25399106      12.98949076       0.00349147       0.00037085       0.00068486      -4.38726018
I       -9.16330910      11.74107687      12.98983967      -0.00365175      -0.00259305       0.00991100      -2.11936282
I       -5.34873730       9.40127183      13.18688356       0.00185162       0.00244925       0.00084742      -2.13325346
I       -6.10418061       6.04023534      16.22426426       0.00192386       0.00064394       0.00041687      -2.12968297
Cs      -2.98652742       9.22445885      16.31628068       0.00210028       0.00080919       0.00250456      -3.51632903
Pb      -6.19671145       6.25482755      19.47680985       0.00104946      -0.00082838      -0.00030217      -4.39986428
I       -9.31213132      13.31297223      19.51298586       0.00105269      -0.00125020      -0.00688631      -2.11660799
I       -7.00540066       9.37973014      19.24414335       0.00375527       0.00042204      -0.00299180      -2.11589466
I       -6.28794635       6.48612306      22.71015068       0.00042824      -0.00016087       0.00048879      -2.12278552
Cs      -3.19006992       9.41520461      22.74096746       0.00088302      -0.00207115       0.00264458      -3.52093877
Pb      -6.22618594      12.48345535      12.92525176      -0.00769067      -0.00032966       0.00519721      -4.19259569
I       -7.00148174      15.58890891      12.77943395      -0.00279650      -0.00089626      -0.00362968      -2.11690063
I       -6.10028762      12.77431629      16.17118666       0.01541851       0.00400394      -0.00113074      -2.13653787
Cs      -9.45642279       9.38843454      16.23122915      -0.00156391      -0.00539255       0.00340550      -3.51090497
Pb      -6.18457724      12.49607538      19.45967559       0.00206782       0.00095279       0.00093481      -4.39601638
I       -3.07251371      11.65702234      19.43693238      -0.00073761      -0.00178152       0.00762254      -2.10920148
I       -5.38471287      15.61532700      19.69426032      -0.00077917       0.00113921       0.00462518      -2.11553318
I       -6.11720050      12.27599566      22.69023959      -0.00338615      -0.00111914      -0.00148810      -2.12376802
Cs      -9.18826056       9.34547143      22.70641688       0.00181064      -0.00034505      -0.00086085      -3.52201845
Pb       6.25302595       6.22664592       0.02034733      -0.00044055       0.00149876      -0.00070723      -4.40536699
I        3.11484910      11.63172433      -0.00792335      -0.00012984      -0.00084866       0.00392043      -2.11545778
I        7.07599825       9.34258702       0.22543081       0.00056945       0.00110264       0.00071969      -2.10920686
I        6.34137006       6.04443939       3.26445397      -0.00096129       0.00101553      -0.00029904      -2.11706813
Cs       9.50464903       9.29803328       3.27998691      -0.00083196       0.00135111       0.00000767      -3.51861061
Pb       6.24677684       6.24207110       6.47901199      -0.00005272       0.00004234       0.00013271      -4.38436508
I        3.07098216      13.28135088       6.77211066      -0.00534331      -0.00375906       0.01392156      -2.11617275
I        5.42661695       9.35174033       6.32563911      -0.00152220      -0.00017368       0.00247843      -2.11858850
I        6.25203993       6.40049305       9.76010383       0.00446783      -0.00009568       0.00113425      -2.16414778
Cs       9.30776978       9.44913463       9.76671605       0.00478003       0.00293807       0.00025621      -3.51035572
Pb       6.24353971      12.45639928       0.04391701      -0.00133253       0.00033189       0.00149830      -4.40099061
I        9.36343357      13.27538227       0.12130355      -0.00143650       0.00116163      -0.00107516      -2.11321749
I        5.41774470      15.57183313      -0.15223176      -0.00227703      -0.00063243       0.00021709      -2.10941458
I        6.13364222      12.69004896       3.29585174      -0.00389265       0.00013198       0.00166619      -2.13060440
Cs       2.99979919       9.37738459       3.27944213      -0.00530671       0.00040821       0.00500639      -3.51957956
Pb       6.22451009      12.47551928       6.54099761      -0.00483336       0.00130102       0.00273828      -4.39815507
I        9.34651168      11.64643839       6.44316869      -0.00401917       0.00313754       0.00016900      -2.11341528
I        7.06289128      15.57947689       6.74633844      -0.00270900       0.00000034       0.00262973      -2.11504581
I        6.38042481      12.24506469       9.78105156       0.00420307      -0.00075616       0.00036828      -2.11837795
Cs       3.37936788       9.16729387       9.73798928       0.00194491      -0.00262282      -0.00041470      -3.48732524
Pb       6.30919660       6.22564044      13.02898083       0.00095294      -0.00003695       0.00194566      -4.38626191
I        3.03280931      11.69563376      12.75555440      -0.02538823       0.01355486      -0.01213916      -2.14359003
I        7.10740393       9.34797521      13.18916986      -0.00261477      -0.00252100       0.00059850      -2.12172810
I        6.36239711       6.00941252      16.24941224      -0.00151694      -0.00328608       0.00231701      -2.12248929
Cs       9.53531907       9.30843649      16.26215871       0.00102897       0.00021447      -0.00141717      -3.51864815
Pb       6.28311628       6.24871239      19.49754668      -0.00051461       0.00159323       0.00139832      -4.40347690
I        3.15485064      13.30347439      19.56453215       0.00196358       0.00064331      -0.00150350      -2.11510836
I        5.45290988       9.35885795      19.28768007      -0.00367689      -0.00058962      -0.00404635      -2.10957975
I        6.21200010       6.47418559      22.73032830       0.00146219       0.00462860       0.00072448      -2.12275953
Cs       9.29041316       9.40358066      22.73611715      -0.00145054      -0.00117649      -0.00040315      -3.52055647
Pb       6.29124135      12.46695045      13.00610170      -0.00364949      -0.00093483      -0.00014100      -4.37397526
I        9.41487069      13.24136264      13.09524090      -0.00982778      -0.00612798       0.00110843      -2.12533131
I        5.49130106      15.58890596      12.85446110       0.00517859       0.00210204       0.00290395      -2.11646554
I        6.16124005      12.67668679      16.24267980      -0.00587317      -0.00463328       0.00059188      -2.12900084
Cs       3.01243185       9.41523365      16.22675564      -0.00523656       0.00993281      -0.00598651      -3.51248677
Pb       6.27999969      12.47208070      19.50120059      -0.00197026      -0.00146778      -0.00064479      -4.40010259
I        9.40321074      11.65032329      19.41894013      -0.00042053      -0.00037313       0.00117522      -2.11443338
I        7.09588190      15.59271094      19.69442331      -0.00043629      -0.00106438      -0.00090443      -2.11228104
I        6.36128332      12.25410324      22.74387031      -0.00331150      -0.00064596       0.00029318      -2.12658022
Cs       3.29729004       9.33196033      22.74237707      -0.00164066       0.00225590      -0.00135458      -3.52250545
Pb       0.00516236      12.47122074       0.06171418       0.00031875      -0.00049284       0.01331822      -4.37441412
I       -3.12559076      17.88497248      -0.04585091      -0.00062252       0.00009607       0.00140094      -2.11252573
I        0.82853055      15.57943099       0.25003747      -0.00075274       0.00018065       0.00167824      -2.11418489
I        0.12256722      12.30358566       3.48143475       0.00032599       0.00241307       0.00420316      -2.13257302
Cs       3.25078772      15.50727448       3.30710582      -0.00426009      -0.00766763       0.00488739      -3.52050991
Pb      -0.08188891      12.46894519       6.57186911      -0.01482631       0.00294724       0.02918891      -4.28075336
I       -3.11438385      19.51971737       6.62240021      -0.00040431       0.00280991       0.00028643      -2.12980651
I       -0.83717620      15.58229607       6.36353147      -0.00466919       0.00279591       0.00116133      -2.12245293
I       -1.58118517      12.82278498      10.37835421       0.11926604      -0.00128026      -0.10596501      -2.09679457
Cs       3.17823574      15.79807589       9.77449989       0.00467105       0.00534596       0.00426233      -3.47543819
Pb      -0.00217256      18.70218981       0.03697154      -0.00057177       0.00048562       0.00068135      -4.40339964
I        3.11743112      19.52190364       0.11230727      -0.00048496       0.00007594      -0.00079672      -2.10999856
I       -0.83009187      21.81616190      -0.16186889      -0.00078709       0.00050080      -0.00127536      -2.11149486
I       -0.09532433      18.92034680       3.28543214      -0.00163959       0.00212893      -0.00048546      -2.12414173
Cs      -3.22311527      15.63902741       3.25224486      -0.00059439      -0.00046831      -0.00124246      -3.52206582
Pb       0.01993475      18.71563558       6.51733883      -0.00048873       0.00061873      -0.00001461      -4.39223492
I        3.12342334      17.86946869       6.42251208      -0.00031951      -0.00064215      -0.00080295      -2.11633533
I        0.81638544      21.82390888       6.72037759      -0.00069134       0.00205720       0.00024691      -2.11077416
I        0.12920675      18.50019085       9.77327331       0.00050030       0.00461635       0.00072189      -2.13842034
Cs      -3.18439865      16.17462976       9.52911931       0.00833441      -0.00684820       0.00535257      -3.47417796
Pb       0.05156711      12.45988886      13.03067099      -0.01907480       0.00557277      -0.02262689      -4.11219503
I       -3.08120461      17.76361369      13.04036248       0.00186872      -0.00462180       0.00386035      -2.14513871
I        0.90247093      15.55702714      13.18295841       0.00022530      -0.00110053      -0.00751336      -2.11888809
I        0.00227800      12.31383642      16.23815275       0.00203315       0.00609448      -0.00239513      -2.13847815
Cs       3.28885901      15.56145731      16.27349825      -0.00315802       0.00092651      -0.00046868      -3.51662811
Pb       0.03633891      12.48132577      19.53675933       0.00092123      -0.00054788       0.00068751      -4.38744472
I       -3.09000676      19.53957099      19.55239329       0.00045675       0.00059764      -0.00315684      -2.11361321
I       -0.77699946      15.59518833      19.34428216       0.00050909       0.00154419       0.00957752      -2.11372303
I       -0.02666380      12.69569007      22.80192449       0.00557569      -0.00424222      -0.00181254      -2.13151542
Cs       3.04764798      15.64974016      22.74126479      -0.00215373      -0.00215100      -0.00005400      -3.52307581
Pb       0.02875963      18.67736234      13.02346180       0.00123364       0.00065565       0.00118697      -4.39350212
I        3.14500912      19.53130256      13.08920265       0.00177441      -0.00093537       0.00082614      -2.11939703
I       -0.76529771      21.80572819      12.82124972       0.00278433       0.00329499       0.00285003      -2.11926782
I       -0.06248451      18.89880044      16.25825725       0.00522917      -0.00373091       0.00186521      -2.12460388
Cs      -3.21375703      15.70394028      16.37419352       0.00356715       0.00124047       0.00705317      -3.45052534
Pb       0.03360862      18.72273556      19.50848403       0.00097084      -0.00052910       0.00230782      -4.40158007
I        3.15242343      17.89683162      19.42626556       0.00110301      -0.00094184       0.00118049      -2.11263240
I        0.85230460      21.83687404      19.69085726       0.00089788       0.00012926       0.00062684      -2.11428447
I        0.12397371      18.49783894      22.74574661      -0.00143456       0.00044306       0.00225041      -2.12181965
Cs      -2.96246235      15.57024368      22.75238924       0.00122740      -0.00188764       0.00337776      -3.52098559
159
Lattice="12.468885909578862 12.45567328789723 0.03660330624248233 -12.500938529614729 12.48755672392219 -0.009239974293740398 0.04511830023029706 0.02729054207635215 25.947711814671685" Properties=species:S:1:pos:R:3:forces:R:3:energies:R:1 energy=-453.8211620054064 stress="7.109627966910872e-05 7.909612465813682e-05 -1.2209804575918955e-05 7.909612465813682e-05 -0.0001994926125553798 4.951279272099203e-05 -1.2209804575918955e-05 4.951279272099203e-05 0.0004993985514587419" free_energy=-453.8211620054064 pbc="T T T"
Pb       0.01740505      -0.00719782       0.00678845      -0.00094029       0.00018333      -0.00015831      -4.40217727
I       -3.10862795       5.40944800      -0.06148699      -0.00015999       0.00011253       0.00119820      -2.11268794
I        0.83551204       3.11282206       0.21159555      -0.00011665      -0.00019871       0.00133626      -2.11199254
I        0.09815073      -0.23217099       3.25193539      -0.00586228      -0.00098866      -0.00091301      -2.12451750
Cs       3.26661180       3.06350814       3.25950557       0.00205967       0.00584219      -0.00207637      -3.52657436
Pb       0.01964413      -0.00149610       6.48552946      -0.00206555       0.00068139      -0.00131642      -4.39898007
I       -3.10305939       7.04328607       6.55749386      -0.00001663      -0.00014453       0.00094080      -2.11462454
I       -0.79333167       3.12309594       6.30677556      -0.00074646       0.00133082       0.00142053      -2.11453575
I       -0.01299662       0.20477533       9.74777862       0.00717768      -0.00275144      -0.00058158      -2.13840438
Cs       3.03547449       3.12582183       9.73594032       0.00089382      -0.00694523      -0.00267658      -3.52716638
Pb       0.01491580       6.22846503       0.02646103       0.00058719      -0.00020993       0.00108538      -4.40234646
I        3.13404679       7.05241771       0.09152025       0.00019180       0.00129788      -0.00024051      -2.10993194
I       -0.81432210       9.35738851      -0.13280635       0.00058647       0.00040353       0.00235889      -2.11620146
I       -0.05134767       6.46998640       3.27444986       0.00271470       0.00183077       0.00078898      -2.12480347
Cs      -3.22699393       3.15468299       3.25031084      -0.00042993      -0.00145109       0.00131250      -3.52044942
Pb       0.01856025       6.23627196       6.51354179      -0.00048782       0.00043261       0.00178196      -4.39767258
I        3.13876258       5.41922847       6.44360530      -0.00065203       0.00057007       0.00369300      -2.11395805
I        0.83476818       9.38082709       6.77799357      -0.00244052       0.00164220       0.00476607      -2.12151760
I        0.12427037       6.02233225       9.75897011       0.00070546      -0.00363112       0.00213587      -2.12665549
Cs      -2.93793021       3.08110296       9.74461731       0.00176014      -0.00437081       0.00204983      -3.51704766
Pb       0.07592570      -0.00851944      12.99341727       0.00277573       0.00038397       0.00157104      -4.37563479
I       -3.07162621       5.42545022      12.91021654       0.00523869      -0.00177801       0.00180913      -2.11701173
I        0.88843059       3.09538478      13.18302132       0.00026557      -0.00187008       0.00156618      -2.11485170
I        0.15481179      -0.23352565      16.21963364      -0.00392280      -0.00133369       0.00149402      -2.12518604
Cs       3.32351441       3.06088132      16.23810151       0.00697991       0.00059176      -0.00459622      -3.52559686
Pb       0.06128930       0.01256846      19.47111884       0.00030097      -0.00000303      -0.00078100      -4.40067142
I       -3.06891544       7.05121534      19.59570825       0.00066482      -0.00165276       0.00186147      -2.11638499
I       -0.76859107       3.12553186      19.28204053      -0.00056544      -0.00041507       0.00029500      -2.11068908
I       -0.01984984       0.23864678      22.70983809       0.00233087       0.00170502      -0.00112619      -2.12578442
Cs       3.05361229       3.16299102      22.71752757       0.00024505      -0.00386368      -0.00087838      -3.52293933
Pb       0.06244003       6.21864211      13.00863585       0.00195448      -0.00398167       0.00083414      -4.40209101
I        3.19620267       7.03503972      13.08328377      -0.00018491       0.00013894       0.00061595      -2.11638467
I       -0.73109863       9.33793183      12.89704322       0.00369191       0.00495503       0.00412648      -2.10236300
I       -0.02705281       6.42969615      16.24831782       0.00109837       0.00043104      -0.00060131      -2.12163422
Cs      -3.19622294       3.16820384      16.22513823       0.00081392      -0.00471841      -0.00102181      -3.51992758
Pb       0.05790101       6.23781415      19.49100127       0.00142563      -0.00006415      -0.00052720      -4.40376295
I        3.17145455       5.40986486      19.40977426       0.00087922      -0.00296964       0.00187360      -2.10945313
I        0.86882048       9.37140213      19.65988108       0.00153373      -0.00275146      -0.00710357      -2.11673389
I        0.14624078       6.03450067      22.73361013       0.00033055       0.00110340       0.00136553      -2.12224864
Cs      -2.93735057       3.09673995      22.71639318      -0.00042768       0.00076330      -0.00017805      -3.52208494
Pb      -6.23243225       6.23337872       0.00278450      -0.00067132      -0.00095867       0.00058037      -4.40355329
I       -9.36203666      11.65467104      -0.08022107      -0.00081897       0.00067870      -0.00128803      -2.11245823
I       -5.41753665       9.35349333       0.18868626      -0.00097038      -0.00013218      -0.00092447      -2.11255553
I       -6.13637861       6.00405876       3.24722393       0.00042354      -0.00179029       0.00007035      -2.12352940
Cs      -3.01314247       9.27860505       3.25140397      -0.00252389      -0.00121570      -0.00000612      -3.52098412
Pb      -6.22252579       6.24027547       6.47650336       0.00012834      -0.00050297      -0.00000880      -4.39732898
I       -9.36868885      13.29865709       6.52248252      -0.00173028       0.00062960      -0.01048257      -2.10523910
I       -7.07039492       9.34136680       6.28150954      -0.00414023      -0.00172134      -0.00235696      -2.10794756
I       -6.33175238       6.44256935       9.73771223      -0.00048005       0.00175317       0.00037677      -2.14655439
Cs      -3.26008864       9.28847899       9.76526100      -0.00150886      -0.00578514      -0.00480354      -3.53926996
Pb      -6.24323909      12.47034992      -0.00741203      -0.00110953      -0.00050983      -0.00261194      -4.40291832
I       -3.11039534      13.28932764       0.11267182      -0.00008456      -0.00143903      -0.00188836      -2.11759912
I       -7.06268664      15.59167630      -0.17925554       0.00090598       0.00037297      -0.00111171      -2.11331812
I       -6.33543108      12.66023255       3.22531948       0.00041860      -0.00125030      -0.00236211      -2.11413548
Cs      -9.48382572       9.40872012       3.22872355      -0.00328732       0.00081630      -0.00223247      -3.52536475
Pb      -6.25887525      12.44983922       6.45954596      -0.00281550      -0.00259568      -0.00214472      -4.40692503
I       -3.12187518      11.60063312       6.40741200      -0.00256285      -0.00340080      -0.00470695      -2.11102264
I       -5.49353148      15.58693479       6.55527952      -0.00073660      -0.00118313      -0.00122830      -2.11827097
I       -6.37231209      12.22589560       9.70282880      -0.02010933      -0.00364937      -0.00292663      -2.09671987
Cs      -9.22972546       9.35558587       9.75481186      -0.00698270       0.00102044       0.00433899      -3.52892432
Pb      -6.19254696       6.25332161      12.99084463       0.00352878      -0.00070925       0.00089535      -4.38737210
I       -9.13358509      11.75530898      13.00051057       0.00528777       0.00139565       0.01149135      -2.11167967
I       -5.34628732       9.39092942      13.18623680       0.00243111       0.00000757       0.00093550      -2.13088743
I       -6.10322010       6.03975393      16.22454780       0.00243466       0.00024694       0.00032706      -2.12969122
Cs      -2.98891369       9.22078885      16.31431623       0.00076939      -0.00011277       0.00251793      -3.51794257
Pb      -6.19655658       6.25518530      19.47644279       0.00112918      -0.00078271      -0.00042604      -4.39978882
I       -9.31080634      13.31252457      19.51067444       0.00118190      -0.00129874      -0.00799862      -2.11715534
I       -7.00520850       9.37988590      19.24205607       0.00398779       0.00014122      -0.00360753      -2.11603081
I       -6.28818058       6.48700647      22.70968948       0.00033345       0.00011926       0.00018920      -2.12311126
Cs      -3.19276802       9.41340436      22.74012295       0.00008304      -0.00273290       0.00230401      -3.52113146
Pb      -6.16886017      12.48855391      12.88898152       0.00872520       0.00116844      -0.00528861      -4.24287019
I       -6.98724454      15.59095012      12.77321629       0.00087217      -0.00034231      -0.00542807      -2.11606339
I       -6.08153970      12.77430761      16.16502338       0.02044416       0.00374001      -0.00286709      -2.13456436
Cs      -9.45155751       9.39512288      16.22603646      -0.00040868      -0.00366468       0.00208576      -3.51114276
Pb      -6.18266414      12.49701976      19.44719327       0.00344066       0.00108502      -0.00209764      -4.39665059
I       -3.07003091      11.65465951      19.43847609      -0.00111294      -0.00261676       0.00869801      -2.10803346
I       -5.38507957      15.61598505      19.69419104      -0.00078620       0.00159594       0.00455214      -2.11582764
I       -6.11770659      12.27591936      22.68465129      -0.00380407      -0.00103863      -0.00267600      -2.12284004
Cs      -9.18763442       9.34649779      22.70534689       0.00199498      -0.00001249      -0.00110056      -3.52191184
Pb       6.25316408       6.22655734       0.01869815      -0.00029246       0.00146516      -0.00116851      -4.40475888
I        3.11431307      11.63130601      -0.01257218      -0.00062292      -0.00100905       0.00262910      -2.11483397
I        7.07558611       9.34248425       0.22422315       0.00046353       0.00118496       0.00053170      -2.10947319
I        6.34081944       6.04644199       3.26368192      -0.00112415       0.00153383      -0.00064557      -2.11828473
Cs       9.50516306       9.29785453       3.27755705      -0.00069917       0.00147248      -0.00056313      -3.51827400
Pb       6.24550411       6.24319451       6.47856206      -0.00005885       0.00055145       0.00015207      -4.38296773
I        3.07663529      13.29032300       6.75393516      -0.00373412      -0.00119989       0.00796234      -2.11819643
I        5.42605133       9.35210594       6.32739483      -0.00155824       0.00019363       0.00280696      -2.11831779
I        6.25063669       6.40606619       9.75841310       0.00428755       0.00163400       0.00041527      -2.16461810
Cs       9.31125973       9.45619626       9.76813169       0.00507439       0.00470270       0.00121029      -3.50919446
Pb       6.24358647      12.45630626       0.04217857      -0.00097813       0.00029238       0.00084251      -4.40105589
I        9.36353594      13.27479744       0.11983969      -0.00152853       0.00094775      -0.00160497      -2.11314982
I        5.41875414      15.57214442      -0.15439446      -0.00201170      -0.00072253      -0.00060281      -2.11021019
I        6.13656848      12.68949948       3.29396879      -0.00292732      -0.00014059       0.00106407      -2.13020555
Cs       3.00902847       9.36876117       3.27370283      -0.00241858      -0.00176350       0.00349688      -3.51956782
Pb       6.23396157      12.47286920       6.53843528      -0.00220719       0.00062605       0.00206473      -4.39755828
I        9.35037723      11.64413509       6.44123226      -0.00248735       0.00279262       0.00030122      -2.11453182
I        7.06270219      15.57903841       6.74781103      -0.00255131       0.00002371       0.00288917      -2.11517292
I        6.38305524      12.25033282       9.77791901       0.00427175       0.00019646      -0.00139338      -2.11828568
Cs       3.37804533       9.16775774       9.74342567       0.00228863      -0.00235897       0.00056839      -3.48679675
Pb       6.31329339       6.22314440      13.02759636       0.00176593      -0.00013328       0.00134124      -4.38824338
I        3.09773704      11.66323095      12.78768026      -0.01214542       0.00633623      -0.00235708      -2.13907702
I        7.11894987       9.34583772      13.18792153       0.00053444      -0.00381244       0.00053243      -2.11935435
I        6.36263058       6.01042268      16.24892195      -0.00188752      -0.00321594       0.00249551      -2.12275876
Cs       9.53913797       9.30834649      16.26248017       0.00186066       0.00044847      -0.00183096      -3.51929586
Pb       6.28336999       6.24888540      19.49629715      -0.00039156       0.00158910       0.00134840      -4.40331538
I        3.15244239      13.30295641      19.55346792       0.00224883       0.00058858      -0.00518335      -2.11618768
I        5.45315048       9.35916727      19.28769524      -0.00340661      -0.00073398      -0.00413725      -2.10980640
I        6.21228283       6.47403964      22.72951618       0.00164876       0.00450946       0.00065812      -2.12281706
Cs       9.29044041       9.40387386      22.73561085      -0.00139981      -0.00112271      -0.00056223      -3.52051102
Pb       6.30508189      12.46384180      13.00791832       0.00089392      -0.00112186       0.00024503      -4.38235163
I        9.44168122      13.24189895      13.09589751      -0.00380110      -0.00589224       0.00035862      -2.12273034
I        5.49860762      15.58560715      12.86118239       0.00604098       0.00274390       0.00370160      -2.11611768
I        6.17198801      12.67767369      16.24431544      -0.00278296      -0.00396614       0.00198011      -2.12682225
Cs       3.01614727       9.40896791      16.22518835      -0.00404957       0.00817859      -0.00582717      -3.51228817
Pb       6.28127246      12.47228971      19.49937895      -0.00209339      -0.00132590      -0.00169399      -4.40043740
I        9.40371369      11.65080745      19.41999187       0.00003695      -0.00034977       0.00143240      -2.11443908
I        7.09534361      15.59301106      19.69513124      -0.00060125      -0.00078713      -0.00083283      -2.11213128
I        6.36023631      12.25449741      22.74305715      -0.00380850      -0.00066115      -0.00003489      -2.12633434
Cs       3.29732415       9.33016655      22.73891898      -0.00186860       0.00174994      -0.00254871      -3.52217925
Pb       0.00503658      12.47093706       0.03318134       0.00048773      -0.00061175       0.00600428      -4.37349918
I       -3.12554610      17.88543853      -0.04625250      -0.00053256       0.00019701       0.00131272      -2.11279755
I        0.82747029      15.57802385       0.24570895      -0.00093973      -0.00071377       0.00026302      -2.11401478
I        0.12356217      12.29373642       3.44547243      -0.00000527       0.00022890      -0.00044831      -2.13862790
Cs       3.25784125      15.51484329       3.29748576      -0.00200269      -0.00532078       0.00225069      -3.52028516
Pb      -0.04265431      12.46156471       6.49004591      -0.00342348       0.00113397       0.00329853      -4.21027409
I       -3.11287563      19.51894375       6.62452670       0.00008794       0.00188882       0.00032256      -2.13270832
I       -0.82735126      15.57365208       6.35277304      -0.00214641       0.00091192      -0.00141750      -2.12819505
I       -2.14190787      12.85354309      10.89436904      -0.00802206       0.02046760       0.01316785      -2.07151315
Cs       3.22491661      15.82176479       9.76498032       0.01090201       0.00713111       0.00251712      -3.47345478
Pb      -0.00193549      18.70193985       0.03503624      -0.00052635       0.00065656      -0.00003199      -4.40325626
I        3.11771207      19.52141506       0.11171898      -0.00033136      -0.00000379      -0.00076950      -2.11043493
I       -0.82955826      21.81598539      -0.16317785      -0.00050814       0.00041095      -0.00153516      -2.11154278
I       -0.09640943      18.92228465       3.28385535      -0.00183671       0.00184557      -0.00091674      -2.12392572
Cs      -3.22913296      15.64168123       3.24928341      -0.00156394      -0.00007127      -0.00170509      -3.51993599
Pb       0.02357839      18.71841947       6.51447801       0.00043811       0.00135969      -0.00094352      -4.38966556
I        3.12504400      17.87341883       6.41292559       0.00046251       0.00004703      -0.00243176      -2.11629371
I        0.81787047      21.82369984       6.71730213      -0.00074921       0.00130423      -0.00075246      -2.11120083
I        0.14177243      18.50056363       9.77005431       0.00305531       0.00507029       0.00027577      -2.14004175
Cs      -3.17815516      16.22181905       9.50525390       0.00988997      -0.00582708       0.00881437      -3.47230826
Pb       0.07243548      12.45223389      13.04861243      -0.02035599       0.00412695      -0.01876707      -4.08926122
I       -3.07610722      17.77301783      13.04180826       0.00360199      -0.00118933       0.00318663      -2.14210832
I        0.91703263      15.55137414      13.16938193       0.00135520      -0.00260380      -0.01100323      -2.11922519
I       -0.05277413      12.32832579      16.19711219      -0.01285817       0.00941886      -0.01209860      -2.14859071
Cs       3.29366432      15.56528880      16.27053296      -0.00172898       0.00213453      -0.00188882      -3.51496464
Pb       0.03415357      12.48298700      19.53136448       0.00031312      -0.00015615       0.00062638      -4.38106640
I       -3.08944805      19.53972863      19.55246687       0.00067125       0.00076367      -0.00343585      -2.11383148
I       -0.77758561      15.59422226      19.34263114       0.00050565       0.00266223       0.00917931      -2.11325773
I       -0.02642606      12.69580361      22.77744667       0.00598465      -0.00429446      -0.00560993      -2.13421202
Cs       3.05002296      15.65022728      22.73802039      -0.00161533      -0.00227676      -0.00124618      -3.52289153
Pb       0.03374758      18.67527885      13.02221535       0.00281588      -0.00010140       0.00097881      -4.39302385
I        3.14905156      19.53110272      13.09150712       0.00237623      -0.00149769       0.00131868      -2.11994184
I       -0.75858467      21.80151971      12.82070522       0.00545238       0.00132962       0.00237590      -2.11978726
I       -0.05940698      18.89591351      16.25689552       0.00659233      -0.00406472       0.00120995      -2.12426899
Cs      -3.21594814      15.70417995      16.37229038       0.00309834       0.00111721       0.00559072      -3.45410807
Pb       0.03441461      18.72342221      19.50685974       0.00109282      -0.00088341       0.00235093      -4.40171570
I        3.15277448      17.89646055      19.42628385       0.00130380      -0.00102075       0.00080625      -2.11257880
I        0.85318949      21.83656233      19.68973156       0.00110891       0.00011198       0.00017936      -2.11404448
I        0.12388553      18.49778381      22.74435103      -0.00126253       0.00044041       0.00204504      -2.12156695
Cs      -2.96475389      15.57239941      22.75098854       0.00076896      -0.00119876       0.00259226      -3.52109540
159
Lattice="12.468885909578862 12.45567328789723 0.03660330624248233 -12.500938529614729 12.48755672392219 -0.009239974293740398 0.04511830023029706 0.02729054207635215 25.947711814671685" Properties=species:S:1:pos:R:3:forces:R:3:energies:R:1 energy=-453.90094640900315 stress="8.493226764602033e-05 7.675178330108453e-05 -1.7559817991424015e-05 7.675178330108453e-05 -0.00016059159493288632 5.322148909176705e-05 -1.7559817991424015e-05 5.322148909176705e-05 0.000558307656955897" free_energy=-453.90094640900315 pbc="T T T"
Pb       0.01789349      -0.00723691       0.00604162      -0.00082008       0.00014611      -0.00034984      -4.40218743
I       -3.10849332       5.40922050      -0.06293698      -0.00009742       0.00001228       0.00040951      -2.11241956
I        0.83507428       3.11331819       0.21031609      -0.00035673      -0.00005799       0.00093819      -2.11204400
I        0.09749555      -0.23258048       3.25071764      -0.00636883      -0.00113501      -0.00122017      -2.12414183
Cs       3.26683994       3.06515265       3.25731766       0.00234538       0.00642743      -0.00297222      -3.52610136
Pb       0.02224365      -0.00155578       6.48492051      -0.00107366       0.00064224      -0.00140183      -4.39872340
I       -3.10110810       7.05441147       6.57085667       0.00028690       0.00160774       0.00304243      -2.11489204
I       -0.79511340       3.12318784       6.30574585      -0.00067302       0.00096353       0.00119578      -2.11512227
I       -0.00803235       0.20503566       9.74488710       0.00893810      -0.00288467      -0.00183600      -2.13871336
Cs       3.03726166       3.12183935       9.73857811       0.00150324      -0.00798463      -0.00246456      -3.52950067
Pb       0.01429216       6.22907091       0.02462649       0.00035150      -0.00002576       0.00084419      -4.40230295
I        3.13395236       7.05162459       0.08938448       0.00018236       0.00100849      -0.00069673      -2.11039474
I       -0.81609756       9.35836656      -0.13544078       0.00023097       0.00054508       0.00170796      -2.11534010
I       -0.05565170       6.47112007       3.27288891       0.00178167       0.00215574       0.00044787      -2.12510271
Cs      -3.22716162       3.15417796       3.24899416      -0.00012970      -0.00162899       0.00090655      -3.51981521
Pb       0.01763223       6.23446923       6.51262269      -0.00065028      -0.00010715       0.00199147      -4.39815825
I        3.13854992       5.41892301       6.44370536      -0.00055848       0.00036036       0.00324250      -2.11336006
I        0.84223318       9.38202900       6.77239265      -0.00029721       0.00156539       0.00422660      -2.12173962
I        0.12742687       6.01770075       9.75622590       0.00158175      -0.00434419       0.00081795      -2.12399631
Cs      -2.93706766       3.07935082       9.74727964       0.00253477      -0.00501944       0.00247789      -3.51719328
Pb       0.10405671      -0.01378734      12.99297568       0.00860976       0.00065934       0.00140539      -4.38120679
I       -3.06892938       5.42729265      12.90853143       0.00555019      -0.00225357       0.00113965      -2.11637802
I        0.89331652       3.09734183      13.18520105       0.00141604      -0.00074771       0.00173933      -2.11460821
I        0.15654383      -0.23310618      16.22093823      -0.00403809      -0.00160097       0.00187545      -2.12481037
Cs       3.33510232       3.05291648      16.23098055       0.01092688      -0.00160750      -0.00676488      -3.52481055
Pb       0.06303207       0.01234110      19.46989208       0.00118037       0.00003131      -0.00128358      -4.40077882
I       -3.06873758       7.05071793      19.59409799       0.00100630      -0.00186318       0.00159048      -2.11595949
I       -0.76717267       3.12650568      19.28017631      -0.00021847      -0.00022273       0.00006876      -2.11070841
I       -0.01831877       0.23915920      22.70932211       0.00315515       0.00189298      -0.00125463      -2.12595065
Cs       3.05436877       3.16332113      22.71496476       0.00054894      -0.00396299      -0.00195480      -3.52253453
Pb       0.06609188       6.21618654      13.00331274       0.00159991      -0.00298489      -0.00056087      -4.40307835
I        3.19829994       7.02768243      13.08259481       0.00055475      -0.00051765       0.00053879      -2.11557456
I       -0.71798953       9.34094657      12.85650056       0.00515375       0.00535664      -0.00693641      -2.10338079
I       -0.02912052       6.43846105      16.24392036       0.00062994       0.00180746      -0.00115042      -2.12236766
Cs      -3.19459715       3.16676144      16.22227543       0.00136634      -0.00528414      -0.00174584      -3.52068395
Pb       0.05834845       6.23834514      19.48679073       0.00168294      -0.00034224      -0.00131944      -4.40331067
I        3.17231888       5.40958162      19.40404815       0.00119916      -0.00307614       0.00039111      -2.10963599
I        0.86930680       9.37503150      19.64982362       0.00158536      -0.00104680      -0.00959182      -2.11794068
I        0.14755303       6.03703388      22.73070860       0.00081078       0.00141657       0.00056810      -2.12275701
Cs      -2.93691800       3.09689966      22.71544114      -0.00004511       0.00067883      -0.00067481      -3.52210858
Pb      -6.23165651       6.23419606       0.00235585      -0.00044577      -0.00081930       0.00028461      -4.40331235
I       -9.36093022      11.65502093      -0.08091775      -0.00046403       0.00079897      -0.00113008      -2.11269389
I       -5.41580258       9.35359559       0.18950534      -0.00067349      -0.00005097      -0.00079447      -2.11247121
I       -6.13202211       6.00479226       3.24697821       0.00158095      -0.00178869      -0.00027550      -2.12435826
Cs      -3.01714974       9.28324036       3.25930702      -0.00313992       0.00030339       0.00156693      -3.52021775
Pb      -6.21871325       6.24169016       6.47764802       0.00089404      -0.00006554       0.00037189      -4.39803486
I       -9.36622170      13.30036881       6.51216426      -0.00143999       0.00063290      -0.01351173      -2.10428561
I       -7.06598361       9.34167123       6.27528890      -0.00319894      -0.00240168      -0.00375019      -2.10633867
I       -6.33030922       6.44594764       9.73656047      -0.00047319       0.00212310      -0.00024858      -2.14458499
Cs      -3.26889065       9.32041762       9.77420277      -0.00204249       0.00702815      -0.00159169      -3.52949149
Pb      -6.24154411      12.47029919      -0.01322688      -0.00049876      -0.00049587      -0.00475734      -4.40321129
I       -3.10800893      13.29069797       0.10748499       0.00033077      -0.00101196      -0.00330290      -2.11717162
I       -7.06282971      15.59138719      -0.18109488       0.00087793       0.00031002      -0.00154273      -2.11309757
I       -6.32567355      12.66282071       3.21924234       0.00286326      -0.00086614      -0.00395723      -2.11460231
Cs      -9.48402737       9.40871895       3.22739537      -0.00330479       0.00079802      -0.00240701      -3.52502442
Pb      -6.26005200      12.45049146       6.45513286      -0.00308644      -0.00262226      -0.00220173      -4.40684132
I       -3.10630406      11.61498984       6.44019846       0.00157020       0.00028314       0.00661436      -2.11894866
I       -5.48927946      15.58646726       6.56253415      -0.00083413      -0.00085802      -0.00076195      -2.11827562
I       -6.41722114      12.21198107       9.68097757      -0.02975732      -0.00623605      -0.00640938      -2.08911748
Cs      -9.23858290       9.35612531       9.76236236      -0.00956790       0.00044124       0.00598434      -3.53114120
Pb      -6.19032251       6.25359895      12.98926097       0.00463925      -0.00059519       0.00002465      -4.38983560
I       -9.12518153      11.76871101      13.00360532       0.00025784       0.00170432       0.01160263      -2.10561572
I       -5.34514509       9.38150822      13.17882396       0.00116902      -0.00246011      -0.00026116      -2.12424522
I       -6.10247469       6.03893756      16.22409473       0.00292151       0.00013045       0.00030425      -2.12990476
Cs      -2.99313550       9.21675595      16.30715499      -0.00073235      -0.00078114       0.00126116      -3.51896993
Pb      -6.19718159       6.25583018      19.47508635       0.00104254      -0.00059404      -0.00085014      -4.40006614
I       -9.30787335      13.31258334      19.50576398       0.00202734      -0.00146551      -0.00943608      -2.11800745
I       -7.00536298       9.38042201      19.23854080       0.00405449       0.00026596      -0.00439036      -2.11581751
I       -6.28868801       6.48787300      22.70921992       0.00019042       0.00052363      -0.00007238      -2.12350637
Cs      -3.19494637       9.41251677      22.73829115      -0.00047925      -0.00326923       0.00202557      -3.52123773
Pb      -6.08755024      12.49651163      12.84968426       0.03201534       0.00305232      -0.01476888      -4.32151168
I       -6.97008821      15.59360020      12.76528584       0.00581778      -0.00043555      -0.00777205      -2.11389362
I       -6.05054970      12.77109498      16.15973221       0.02770970       0.00233570      -0.00378548      -2.13575957
Cs      -9.44624681       9.40550813      16.21591240       0.00063932      -0.00156147       0.00001628      -3.51096473
Pb      -6.17834780      12.49900177      19.43393165       0.00439815       0.00127388      -0.00483609      -4.39730307
I       -3.06594006      11.64958679      19.43555048       0.00077503      -0.00359568       0.00851703      -2.10790980
I       -5.37838154      15.61572012      19.68397442       0.00087375       0.00157013       0.00225213      -2.11327771
I       -6.11647364      12.27737585      22.67907882      -0.00389145      -0.00084351      -0.00398495      -2.12252523
Cs      -9.18730354       9.34739411      22.70336866       0.00209660       0.00030314      -0.00162025      -3.52150151
Pb       6.25346599       6.22574757       0.01721010      -0.00016570       0.00121757      -0.00099244      -4.40453187
I        3.11366650      11.63055890      -0.01786035      -0.00042871      -0.00119100       0.00141426      -2.11436241
I        7.07522611       9.34213247       0.22416443       0.00039891       0.00101304       0.00040116      -2.10976771
I        6.34050172       6.04377822       3.26266907      -0.00130041       0.00139866      -0.00053407      -2.11931935
Cs       9.50559739       9.29603516       3.27739993      -0.00048070       0.00091021      -0.00065933      -3.51830257
Pb       6.24688730       6.24142082       6.48061630       0.00009067       0.00024109       0.00052174      -4.38462037
I        3.08209875      13.29532112       6.74112202      -0.00257459       0.00027670       0.00504612      -2.12052320
I        5.42790123       9.35140585       6.32925853      -0.00137852       0.00053474       0.00323359      -2.11794538
I        6.25598307       6.40532637       9.75618555       0.00608173       0.00172141      -0.00027991      -2.16064441
Cs       9.31137198       9.44941387       9.76835180       0.00511711       0.00282764       0.00126967      -3.51018889
Pb       6.24365903      12.45609782       0.04094865      -0.00089861       0.00024433       0.00052158      -4.40123924
I        9.36373489      13.27438918       0.11877192      -0.00141511       0.00061804      -0.00221892      -2.11309560
I        5.41955144      15.57246967      -0.15571880      -0.00175865      -0.00067868      -0.00101797      -2.11065491
I        6.13808805      12.68889690       3.29267875      -0.00228341      -0.00015268       0.00122629      -2.12993168
Cs       3.01625432       9.36319322       3.27033407      -0.00080601      -0.00286367       0.00266032      -3.51962331
Pb       6.24182952      12.47010734       6.53753566      -0.00089235       0.00049744       0.00148317      -4.39719703
I        9.35414028      11.64072704       6.44194330      -0.00200188       0.00212170       0.00055502      -2.11541674
I        7.06426375      15.57887354       6.74868310      -0.00199957      -0.00033120       0.00305068      -2.11505649
I        6.38120843      12.24978460       9.77582020       0.00248416      -0.00025354      -0.00125164      -2.11884827
Cs       3.38076379       9.17188160       9.75287978       0.00271216      -0.00037742       0.00308305      -3.48742135
Pb       6.31801854       6.21877988      13.02464581       0.00273779      -0.00088627       0.00048119      -4.39147459
I        3.13960922      11.64326735      12.83935875      -0.00293301       0.00176760       0.01002558      -2.13211058
I        7.12802188       9.34375006      13.18776463       0.00201520      -0.00273871       0.00072017      -2.11775561
I        6.37099078       6.00601801      16.24752046      -0.00082634      -0.00386947       0.00171097      -2.12124921
Cs       9.54164430       9.30854804      16.26329489       0.00264448       0.00083190      -0.00165867      -3.52009797
Pb       6.28663286       6.24593540      19.49273527       0.00029759       0.00106763       0.00023334      -4.40432852
I        3.15091145      13.30373726      19.54202843       0.00102791       0.00056343      -0.00859327      -2.11738340
I        5.45608368       9.35847689      19.28792201      -0.00276044      -0.00058283      -0.00421313      -2.11032501
I        6.21223145       6.47142127      22.72809828       0.00153842       0.00379303       0.00018614      -2.12316669
Cs       9.29024040       9.40401036      22.73557212      -0.00145389      -0.00091500      -0.00067419      -3.52064127
Pb       6.31469852      12.46159541      13.01029735       0.00561654       0.00007936       0.00095099      -4.38925332
I        9.46031640      13.24248195      13.09526930      -0.00341254      -0.00652476      -0.00051973      -2.11861261
I        5.49936410      15.58366535      12.86005639       0.00604235       0.00120718       0.00291567      -2.11628433
I        6.18399356      12.68158568      16.24700895       0.00066260      -0.00285463       0.00224772      -2.12471691
Cs       3.02469597       9.39969421      16.22575907      -0.00231832       0.00523145      -0.00493068      -3.51141034
Pb       6.28265601      12.47268462      19.49747838      -0.00117824      -0.00122587      -0.00183198      -4.40089655
I        9.40498213      11.65252168      19.42125823       0.00030712       0.00002979       0.00198399      -2.11418350
I        7.09478670      15.59363943      19.69573566      -0.00063919      -0.00086281      -0.00044897      -2.11161689
I        6.35885553      12.25463463      22.74280140      -0.00421737      -0.00055086      -0.00050922      -2.12607716
Cs       3.29669304       9.32791206      22.73465026      -0.00171242       0.00126545      -0.00326063      -3.52176934
Pb       0.00518591      12.47068379       0.01290712       0.00060541      -0.00059606       0.00082572      -4.37169071
I       -3.12537217      17.88464797      -0.04717261      -0.00051082       0.00005330       0.00126917      -2.11270945
I        0.82796122      15.57624370       0.24033318      -0.00078795      -0.00084447      -0.00106974      -2.11396578
I        0.12554229      12.28728094       3.41785448       0.00015816      -0.00007889      -0.00706326      -2.14359658
Cs       3.26232234      15.52148787       3.29139947      -0.00058228      -0.00382710       0.00085298      -3.51971577
Pb      -0.01458397      12.45592752       6.44509253       0.00291432      -0.00021315      -0.00741861      -4.17531878
I       -3.11102596      19.51365417       6.62229126       0.00038106       0.00138803      -0.00019225      -2.13065246
I       -0.82274452      15.56378984       6.36052464      -0.00064347      -0.00165034       0.00025992      -2.13021674
I       -2.62464437      12.95484576      11.49029600      -0.10026948       0.02530587       0.12079931      -2.10714021
Cs       3.22995825      15.82363370       9.76261135       0.01091856       0.00702337       0.00204147      -3.47167719
Pb      -0.00193667      18.70101727       0.03217074      -0.00033931       0.00032490      -0.00044580      -4.40304018
I        3.11785773      19.52111956       0.11114716      -0.00018834      -0.00009710      -0.00092990      -2.11073232
I       -0.82904526      21.81538689      -0.16389617      -0.00012184       0.00028639      -0.00165959      -2.11174889
I       -0.09615993      18.91903086       3.28169771      -0.00174502       0.00031877      -0.00108747      -2.12449691
Cs      -3.22994695      15.64335845       3.25014100      -0.00082708       0.00021661      -0.00113769      -3.51916236
Pb       0.02513029      18.71699306       6.51329912       0.00066140       0.00073586      -0.00104121      -4.38960231
I        3.12804053      17.87492352       6.41135306       0.00070397       0.00009448      -0.00250244      -2.11601198
I        0.81857107      21.82180999       6.71520084      -0.00124665       0.00067331      -0.00144075      -2.11173843
I        0.14137316      18.49892799       9.76681378       0.00248686       0.00435569      -0.00042419      -2.13865110
Cs      -3.16217054      16.17557011       9.51369499       0.00636075      -0.00499165       0.01203561      -3.47111540
Pb       0.07258239      12.45054970      13.04569683      -0.02162368       0.00407220      -0.01251765      -4.10445535
I       -3.07171499      17.78064660      13.03050229       0.00450563      -0.00073244      -0.00167969      -2.13668552
I        0.91374648      15.54839452      13.15452152       0.00096671      -0.00422293      -0.01227677      -2.12018028
I       -0.09019519      12.33690336      16.13435670      -0.02150515       0.01102623      -0.02166436      -2.15930971
Cs       3.29577216      15.56976562      16.26280569      -0.00086087       0.00299596      -0.00358925      -3.51430922
Pb       0.03274646      12.48613224      19.52212410       0.00012714       0.00032594      -0.00112787      -4.37145185
I       -3.08859260      19.54278265      19.55497664       0.00094385       0.00136443      -0.00310884      -2.11255632
I       -0.78366459      15.59308693      19.32791057      -0.00034709       0.00145393       0.00580955      -2.11274806
I       -0.02674851      12.69526657      22.75003090       0.00647679      -0.00465235      -0.00926971      -2.13697524
Cs       3.05255291      15.65028063      22.73424136      -0.00106812      -0.00241017      -0.00224397      -3.52245798
Pb       0.03445001      18.67789994      13.01908000       0.00302223       0.00112665       0.00057245      -4.39382830
I        3.15129780      19.52848366      13.09224830       0.00322765      -0.00209031       0.00154522      -2.12056767
I       -0.75497020      21.80037547      12.81936757       0.00649516       0.00144540       0.00161926      -2.12055673
I       -0.05833504      18.89521035      16.25371065       0.00749720      -0.00379703       0.00113792      -2.12264406
Cs      -3.20732733      15.66678024      16.32485743       0.00493775      -0.00382266      -0.00121217      -3.46046313
Pb       0.03315112      18.72246640      19.50251310       0.00116446      -0.00064716       0.00165582      -4.40270822
I        3.15240148      17.89563847      19.42458229       0.00123413      -0.00135096       0.00013652      -2.11226901
I        0.85356418      21.83566177      19.68717024       0.00143430      -0.00014291      -0.00046797      -2.11342187
I        0.12333636      18.49525225      22.74151818      -0.00106534      -0.00000127       0.00142551      -2.12192494
Cs      -2.96667644      15.57489614      22.74610508       0.00046911      -0.00065807       0.00146445      -3.52149771
159
Lattice="12.468885909578862 12.45567328789723 0.03660330624248233 -12.500938529614729 12.48755672392219 -0.009239974293740398 0.04511830023029706 0.02729054207635215 25.947711814671685" Properties=species:S:1:pos:R:3:forces:R:3:energies:R:1 energy=-454.02026996246326 stress="-5.8613257828586724e-05 5.3388054066689024e-05 1.2330841471340968e-05 5.3388054066689024e-05 -0.00011895516172772628 5.800126189453517e-05 1.2330841471340968e-05 5.800126189453517e-05 0.000633016833601656" free_energy=-454.02026996246326 pbc="T T T"
Pb       0.01902084      -0.00718378       0.00653170      -0.00067455       0.00024085      -0.00071434      -4.40243687
I       -3.10829466       5.40867132      -0.06402675      -0.00005818      -0.00027625      -0.00034079      -2.11183427
I        0.83499545       3.11434663       0.20936253      -0.00035040       0.00012536       0.00068971      -2.11199209
I        0.10120895      -0.23258951       3.25075351      -0.00537324      -0.00101928      -0.00079825      -2.12373340
Cs       3.26703044       3.06436679       3.25810038       0.00226002       0.00520725      -0.00262856      -3.52433462
Pb       0.02456331      -0.00178119       6.48730198      -0.00092846       0.00082033      -0.00157864      -4.39866293
I       -3.09874871       7.06445488       6.58403674       0.00038875       0.00165964       0.00252546      -2.11506118
I       -0.79512795       3.12294759       6.30119334      -0.00033306       0.00077716       0.00002632      -2.11522676
I       -0.01639666       0.21051001       9.74089369       0.00667153      -0.00188168      -0.00063632      -2.13582605
Cs       3.03519172       3.12443530       9.74581310       0.00036883      -0.00722379      -0.00299130      -3.52649577
Pb       0.01360235       6.23044033       0.02176516       0.00001645       0.00033517       0.00047321      -4.40236803
I        3.13403865       7.05126708       0.08853780       0.00004660       0.00060422      -0.00126389      -2.11059414
I       -0.81961853       9.35915985      -0.13829611      -0.00032148       0.00027702       0.00138279      -2.11411902
I       -0.05968306       6.47451660       3.26927474       0.00070810       0.00250846       0.00061556      -2.12498328
Cs      -3.22764326       3.15285396       3.24787185      -0.00018317      -0.00178056      -0.00004516      -3.51904420
Pb       0.01811512       6.23348837       6.51026485       0.00022900       0.00064284       0.00196991      -4.39934237
I        3.13915295       5.41512579       6.44535911       0.00017928      -0.00015238       0.00256415      -2.11314818
I        0.84948810       9.38055351       6.76920723       0.00018536       0.00117538       0.00535550      -2.12114724
I        0.12713678       6.00658985       9.75062242       0.00195188      -0.00548230      -0.00022483      -2.12006746
Cs      -2.93708039       3.07614332       9.74581223       0.00289773      -0.00360823       0.00120903      -3.51795041
Pb       0.09626398      -0.00950278      12.99223381      -0.00150059       0.00215206       0.00130911      -4.39451877
I       -3.07063158       5.43387139      12.90204049       0.00397552      -0.00245397       0.00007024      -2.11459523
I        0.88600729       3.11332309      13.18889136       0.00012801      -0.00089372       0.00218571      -2.11461769
I        0.14809685      -0.22671943      16.22543867      -0.00666046      -0.00114276       0.00038867      -2.12197849
Cs       3.33675535       3.05333068      16.22581430       0.01023909      -0.00029332      -0.00433632      -3.52056273
Pb       0.06296333       0.01176683      19.46796249       0.00110538       0.00030432      -0.00042337      -4.40166445
I       -3.06968848       7.05738606      19.58067492       0.00108466      -0.00198314       0.00055412      -2.11409867
I       -0.76428809       3.12999265      19.27681231       0.00060454      -0.00013122      -0.00017619      -2.11120838
I       -0.01740527       0.24062629      22.71049698       0.00397377       0.00211593      -0.00092027      -2.12571583
Cs       3.05541041       3.16674931      22.71194195       0.00025951      -0.00329885      -0.00264834      -3.52155448
Pb       0.06050985       6.22278215      12.99123526      -0.00081886       0.00201859      -0.00140343      -4.40139154
I        3.18880419       7.03076726      13.07732754      -0.00019090       0.00081465      -0.00010193      -2.11596133
I       -0.73724300       9.36550507      12.76991343      -0.00545374       0.00264854      -0.01233623      -2.11245578
I       -0.03732421       6.46682832      16.23305322       0.00087045       0.00234266      -0.00085484      -2.12518003
Cs      -3.19401772       3.16936065      16.22258191       0.00115972      -0.00316432      -0.00045613      -3.52147135
Pb       0.05638019       6.24374270      19.47853783       0.00170556      -0.00016014      -0.00135525      -4.40224179
I        3.17212706       5.41182469      19.39628976       0.00143411      -0.00180286      -0.00052601      -2.11087300
I        0.87071116       9.38027072      19.63953328       0.00169869      -0.00000549      -0.00670158      -2.11719207
I        0.14655709       6.04316193      22.72418771       0.00070242       0.00144126      -0.00010495      -2.12402604
Cs      -2.93651602       3.09733961      22.71447814       0.00062730       0.00044533      -0.00084916      -3.52166629
Pb      -6.23067786       6.23551200       0.00210730      -0.00009908      -0.00068024      -0.00014493      -4.40336200
I       -9.35877382      11.65546741      -0.07778944       0.00020137       0.00070467      -0.00033918      -2.11276708
I       -5.41291505       9.35403446       0.19403616      -0.00020960       0.00028182      -0.00001772      -2.11178046
I       -6.12811141       6.00694474       3.24704333       0.00246077      -0.00171712      -0.00015734      -2.12464781
Cs      -3.01987583       9.29639587       3.27306526      -0.00240146       0.00277259       0.00255952      -3.51979748
Pb      -6.21487178       6.24240892       6.47789993       0.00101669      -0.00013589      -0.00018945      -4.39731525
I       -9.35868433      13.30034794       6.52267014      -0.00097666       0.00021083      -0.01027883      -2.10757757
I       -7.05629271       9.34523259       6.27624168      -0.00154306      -0.00155953      -0.00295551      -2.10803304
I       -6.32945249       6.45000892       9.73545317      -0.00098153       0.00198222      -0.00056599      -2.14551288
Cs      -3.31945780       9.33098621       9.78068730      -0.00873178       0.00213804       0.00025462      -3.50322407
Pb      -6.23837712      12.47105165      -0.00934515       0.00012558      -0.00028820      -0.00298227      -4.40318292
I       -3.10565836      13.29515963       0.10118841      -0.00026671      -0.00008603      -0.00372523      -2.11569485
I       -7.06414773      15.59052682      -0.18237620       0.00037485      -0.00025815      -0.00141941      -2.11233545
I       -6.30799125      12.67065649       3.22626020       0.00460004      -0.00078729      -0.00063884      -2.11743080
Cs      -9.48215508       9.40768540       3.23024806      -0.00287403       0.00039469      -0.00238553      -3.52346182
Pb      -6.25344230      12.45613791       6.46853569      -0.00138109      -0.00166778      -0.00047622      -4.40461269
I       -3.09183544      11.62974424       6.49254220       0.00030249       0.00121524       0.00847474      -2.12269278
I       -5.46843808      15.58700891       6.59420084      -0.00087770      -0.00097024      -0.00075464      -2.11717566
I       -6.35481772      12.20466154       9.69146252      -0.00811121      -0.00420750      -0.00036138      -2.10205100
Cs      -9.23864398       9.35997888       9.75747457      -0.00743652       0.00061156       0.00305833      -3.52916311
Pb      -6.19403924       6.24888589      12.98981846       0.00566914       0.00047527       0.00026397      -4.39276502
I       -9.23632861      11.72605849      12.98107455      -0.01362404      -0.00807032       0.00790148      -2.10803175
I       -5.36308432       9.36713635      13.18401937       0.00090268      -0.00236307       0.00003810      -2.11998004
I       -6.10329081       6.03562450      16.22386517       0.00170442      -0.00123829       0.00038494      -2.12857214
Cs      -2.99085638       9.23317449      16.27891024       0.00037109       0.00001497       0.00033460      -3.51708518
Pb      -6.19744131       6.25723392      19.47261207       0.00080789      -0.00064944      -0.00040381      -4.40114934
I       -9.30638272      13.31349654      19.50526375       0.00201267      -0.00130079      -0.00824177      -2.11790218
I       -7.00873038       9.38014948      19.24042551       0.00280389       0.00012279      -0.00300579      -2.11415029
I       -6.28700100       6.48884822      22.70891107       0.00057284       0.00114111      -0.00021725      -2.12425453
Cs      -3.19557692       9.40995665      22.73309174      -0.00054503      -0.00352229       0.00200037      -3.52159508
Pb      -6.11422573      12.49186617      12.89264096      -0.00259372      -0.00060057       0.00464361      -4.38426195
I       -6.97216513      15.59477811      12.76346280      -0.00037996       0.00112342      -0.00480421      -2.11226596
I       -6.06762016      12.75380761      16.17164300       0.01526229      -0.00192984      -0.00086523      -2.13984002
Cs      -9.45140453       9.40862053      16.21311883      -0.00182449      -0.00415169       0.00242752      -3.51302663
Pb      -6.17791955      12.49924086      19.44038576       0.00324030       0.00026003      -0.00140980      -4.39841949
I       -3.06375258      11.64234404      19.42322234       0.00110226      -0.00403047       0.00717040      -2.10861981
I       -5.36882074      15.61267270      19.66522240       0.00183938       0.00019462      -0.00067150      -2.10687696
I       -6.11172341      12.27686656      22.68454938      -0.00378517      -0.00052884      -0.00288134      -2.12376411
Cs      -9.18832429       9.34720186      22.70269562       0.00141794       0.00042275      -0.00154277      -3.52089173
Pb       6.25400385       6.22376328       0.01720826      -0.00016026       0.00078878      -0.00089503      -4.40450755
I        3.11267243      11.62884572      -0.02286873      -0.00018330      -0.00135114       0.00129620      -2.11394752
I        7.07461954       9.34127435       0.22717333       0.00016349       0.00035529       0.00030607      -2.11021342
I        6.34073654       6.03126161       3.26350164      -0.00182984       0.00062371      -0.00007372      -2.12116343
Cs       9.50605272       9.29089632       3.28002469       0.00002292       0.00032534      -0.00039367      -3.51866713
Pb       6.25214853       6.23475769       6.48721083       0.00029872      -0.00016282       0.00058808      -4.38910090
I        3.09069338      13.30064728       6.72816913      -0.00166150       0.00125875       0.00425371      -2.12241676
I        5.43246351       9.34822603       6.32966428      -0.00074203       0.00005381       0.00249048      -2.11833106
I        6.26155084       6.39937035       9.75548102       0.00587797       0.00047926      -0.00016642      -2.15225116
Cs       9.30467741       9.42755184       9.76704306       0.00427666      -0.00018697      -0.00009588      -3.51437447
Pb       6.24313656      12.45568269       0.04023760      -0.00094500       0.00007020       0.00046566      -4.40170119
I        9.36380699      13.27365699       0.11832653      -0.00089037       0.00001884      -0.00247406      -2.11302441
I        5.41997388      15.57287021      -0.15726324      -0.00101924      -0.00023271      -0.00102595      -2.11084741
I        6.13751231      12.68829434       3.29166816      -0.00146681       0.00017824       0.00134586      -2.12921469
Cs       3.02068732       9.35947841       3.26941635      -0.00075217      -0.00227589       0.00203650      -3.51918446
Pb       6.24808500      12.46591430       6.53709782      -0.00147253       0.00046033       0.00134761      -4.39738649
I        9.35925863      11.63887649       6.44257174      -0.00119144       0.00084238       0.00083425      -2.11568137
I        7.06366237      15.57852819       6.74884118      -0.00082140      -0.00014829       0.00290118      -2.11529939
I        6.37450565      12.24652734       9.77431519      -0.00006071      -0.00183776       0.00021034      -2.11891583
Cs       3.38689396       9.17764288       9.75771456       0.00262657       0.00088147       0.00360259      -3.48843319
Pb       6.31087718       6.22340842      13.02187193       0.00039773      -0.00044878       0.00030002      -4.39517423
I        3.16000239      11.61513189      12.89352359      -0.00391588       0.00176407       0.00811463      -2.12729529
I        7.13060569       9.34388142      13.18946920       0.00057171      -0.00159830       0.00120529      -2.11578989
I        6.37884333       5.99970737      16.24511236      -0.00048740      -0.00344699       0.00039424      -2.11805533
Cs       9.54111856       9.30438436      16.26516437       0.00287615       0.00045219      -0.00030459      -3.52183657
Pb       6.29307047       6.23852714      19.48753536       0.00125763       0.00007211      -0.00121855      -4.40621967
I        3.14950127      13.30736513      19.53178450      -0.00004524       0.00048173      -0.00806435      -2.11734106
I        5.46253869       9.35666415      19.29201756      -0.00071888      -0.00071865      -0.00278673      -2.11107725
I        6.21142667       6.46725389      22.72734349       0.00131801       0.00175186      -0.00063680      -2.12372893
Cs       9.28960925       9.40434394      22.73677125      -0.00160133      -0.00034945      -0.00020565      -3.52133759
Pb       6.31763524      12.46139015      13.01400839      -0.00151804      -0.00103450       0.00114974      -4.39707147
I        9.43831262      13.26781661      13.09508033      -0.00818483      -0.00220283      -0.00147151      -2.11542225
I        5.48801527      15.57896041      12.85772994       0.00396741       0.00078438       0.00197769      -2.11502261
I        6.19165846      12.68683959      16.25118091       0.00261107      -0.00166698       0.00134754      -2.12095717
Cs       3.04308372       9.38472648      16.23382987      -0.00104505       0.00127303      -0.00224229      -3.51191214
Pb       6.28301155      12.47364653      19.49552247      -0.00062811      -0.00086461      -0.00092579      -4.40202717
I        9.40472588      11.65452097      19.42341314       0.00070887       0.00104393       0.00311136      -2.11315509
I        7.09521354      15.59468554      19.69742492      -0.00046762      -0.00068539       0.00052072      -2.11122039
I        6.35614489      12.25504486      22.74320884      -0.00422746      -0.00048781      -0.00028326      -2.12548108
Cs       3.29427239       9.32532115      22.72883634      -0.00122186       0.00077310      -0.00261728      -3.52149506
Pb       0.00439286      12.46988488      -0.00066410       0.00068205      -0.00041954       0.00038300      -4.37071276
I       -3.12522720      17.88209257      -0.04930318      -0.00050394      -0.00003266       0.00062640      -2.11207617
I        0.82997107      15.57401949       0.23060099      -0.00020539      -0.00036680      -0.00067122      -2.11356251
I        0.11678138      12.28243574       3.39872073      -0.00177743       0.00058007      -0.00255652      -2.14763374
Cs       3.26386401      15.52763776       3.28513376      -0.00045114      -0.00296304       0.00044948      -3.51910839
Pb       0.00472164      12.45322685       6.42764303       0.00013004       0.00048958      -0.00047310      -4.16969631
I       -3.11027897      19.50762618       6.61651788       0.00022627       0.00068891      -0.00113369      -2.12354442
I       -0.81957812      15.55754623       6.37490515      -0.00199546      -0.00067407       0.00214567      -2.12852300
I       -2.93284270      13.18267364      12.23847386      -0.02345011       0.02892347       0.07394469      -2.12352018
Cs       3.23410196      15.82951914       9.75366757       0.00916522       0.00691717       0.00019416      -3.47060536
Pb      -0.00234524      18.69905487       0.02836991      -0.00016161      -0.00019017      -0.00075892      -4.40298778
I        3.11788829      19.52119214       0.11228770       0.00006704      -0.00021812      -0.00138131      -2.11106778
I       -0.82816783      21.81453943      -0.16287949       0.00039630       0.00013362      -0.00199592      -2.11204694
I       -0.09728134      18.90937361       3.27775961      -0.00118120      -0.00039397      -0.00095188      -2.12491705
Cs      -3.22833887      15.64635873       3.25565386       0.00040125       0.00001951      -0.00077876      -3.51968202
Pb       0.02145749      18.71273582       6.51401144       0.00013897      -0.00015080      -0.00077214      -4.39313774
I        3.13068005      17.88068698       6.40874615       0.00059566       0.00087710      -0.00315684      -2.11603478
I        0.81800022      21.81992494       6.71360770      -0.00153695       0.00089901      -0.00193050      -2.11280749
I        0.12796891      18.49332364       9.76136749       0.00069566       0.00294051      -0.00111778      -2.13195779
Cs      -3.14254396      16.02581449       9.58349265      -0.00022423       0.00017756       0.00889679      -3.47038471
Pb       0.08593610      12.45245592      13.04805546      -0.01023723       0.00376727      -0.00478340      -4.14457970
I       -3.07410115      17.83876707      13.00059675       0.00272095       0.00772569      -0.00132101      -2.12555994
I        0.91072573      15.55075169      13.12308002       0.00314922       0.00083761      -0.00908629      -2.11934406
I       -0.06949116      12.32472479      16.09000164      -0.01193054       0.00446738      -0.00862597      -2.16114795
Cs       3.28830747      15.57820156      16.25162722      -0.00098398       0.00262461      -0.00338247      -3.51571033
Pb       0.03205427      12.49205846      19.51289576       0.00023435       0.00012876      -0.00370522      -4.36671201
I       -3.08788843      19.55004207      19.56085968       0.00099545       0.00203402      -0.00181233      -2.11028580
I       -0.80002843      15.59179805      19.29269122      -0.00100936       0.00008156       0.00132114      -2.11136260
I       -0.02873381      12.69437967      22.72714931       0.00597045      -0.00294037      -0.00520650      -2.13937559
Cs       3.05551010      15.64997903      22.72834700      -0.00054365      -0.00268760      -0.00225140      -3.52142816
Pb       0.03625615      18.69352802      13.01014783       0.00422762      -0.00080928      -0.00009204      -4.39661268
I        3.15261537      19.52635512      13.08597955       0.00436730      -0.00080660       0.00027033      -2.11763672
I       -0.76512245      21.80681588      12.81769454       0.00378053       0.00303438       0.00072000      -2.11715032
I       -0.04895436      18.90173903      16.24702414       0.00884709      -0.00135316       0.00082545      -2.12116953
Cs      -3.19235126      15.57514932      16.20345766       0.00759134      -0.01106170      -0.01173135      -3.50094527
Pb       0.02853063      18.71682712      19.49413933       0.00061385      -0.00082320       0.00029972      -4.40424013
I        3.15135861      17.89423520      19.42218901       0.00092922      -0.00075614       0.00052017      -2.11214624
I        0.85036128      21.83336668      19.68629406       0.00047580       0.00007113       0.00022203      -2.11291750
I        0.12246061      18.48997676      22.73630549      -0.00116842      -0.00118752       0.00028488      -2.12295727
Cs      -2.96716220      15.57878456      22.73449090       0.00047152       0.00015706      -0.00032530      -3.52208603
159
Lattice="12.468885909578862 12.45567328789723 0.03660330624248233 -12.500938529614729 12.48755672392219 -0.009239974293740398 0.04511830023029706 0.02729054207635215 25.947711814671685" Properties=species:S:1:pos:R:3:forces:R:3:energies:R:1 energy=-454.0382021484878 stress="-0.00011947777297584325 9.201367471660071e-05 6.281271048996449e-05 9.201367471660071e-05 -9.005013649093286e-05 2.6529789949201107e-05 6.281271048996449e-05 2.6529789949201107e-05 0.0006023881022337191" free_energy=-454.0382021484878 pbc="T T T"
Pb       0.02027595      -0.00680938       0.01036903      -0.00025682      -0.00006649      -0.00098510      -4.40362434
I       -3.10792339       5.41178242      -0.06758016       0.00024825      -0.00192630      -0.00015418      -2.11118809
I        0.83945545       3.11362587       0.20300133      -0.00009548       0.00140715       0.00349285      -2.11144861
I        0.12462403      -0.22551678       3.25633098      -0.00371196      -0.00041658       0.00211624      -2.12411077
Cs       3.25854779       3.05276590       3.26682890       0.00018758       0.00134674      -0.00264328      -3.52088040
Pb       0.02894079      -0.00355585       6.49712284       0.00036719      -0.00073671      -0.00161518      -4.39742023
I       -3.09776853       7.05738344       6.58047687       0.00019114      -0.00794806      -0.00823882      -2.11732591
I       -0.79805222       3.11995808       6.30722783       0.00447994      -0.00013453      -0.00119751      -2.11634872
I       -0.06035598       0.22216634       9.74002159       0.00384989      -0.00109914       0.00073000      -2.12601821
Cs       3.03006877       3.16943024       9.74504651      -0.00362214      -0.00499424       0.00399209      -3.51981752
Pb       0.01464518       6.22980738       0.01839080      -0.00020117      -0.00051598       0.00067613      -4.40283776
I        3.13568102       7.05003947       0.10104079      -0.00071308       0.00091399      -0.00070886      -2.11142071
I       -0.81452131       9.35658251      -0.14450037      -0.00452569       0.00182935      -0.00128504      -2.11206141
I       -0.07454797       6.46518866       3.26561856       0.00488470       0.00225460       0.00003309      -2.12462127
Cs      -3.22639857       3.15843226       3.25029596       0.00027764      -0.00255003      -0.00232413      -3.51950835
Pb       0.02092575       6.22917514       6.50571469       0.00338016       0.00177622      -0.00090125      -4.39761059
I        3.14241898       5.41061233       6.42876392       0.00123183       0.00110951       0.00153424      -2.11498873
I        0.84278400       9.38062987       6.76067059       0.00400515      -0.00788021       0.00030230      -2.12010203
I        0.12535967       6.03062422       9.74623589      -0.00308224      -0.00752539      -0.00013952      -2.12078768
Cs      -2.95379869       3.08066482       9.73801547       0.00288844      -0.00273843       0.00220877      -3.51943502
Pb       0.04643739       0.00754827      12.98421021       0.00050384      -0.00073725       0.00152083      -4.39833356
I       -3.08339554       5.43704710      12.89366387      -0.00079047      -0.00063360      -0.00123708      -2.11373675
I        0.86301882       3.13420205      13.17391234      -0.00165428       0.00017409       0.00394531      -2.11526309
I        0.14798113      -0.21153237      16.22594699      -0.00241352       0.00012546      -0.00339599      -2.12408309
Cs       3.28533009       3.06200978      16.24363218       0.00116243       0.00058001      -0.00487698      -3.51934678
Pb       0.05466501       0.01180420      19.47091624       0.00014808       0.00024122       0.00094533      -4.40276513
I       -3.07430479       7.07533076      19.56132694       0.00090821      -0.00122897       0.00034382      -2.11311912
I       -0.77231398       3.13130929      19.27768792       0.00281095       0.00187999      -0.00125078      -2.11270087
I       -0.03857384       0.23633857      22.71388393       0.00325348      -0.00020221       0.00068811      -2.12331890
Cs       3.06222288       3.18370671      22.71706018      -0.00099478      -0.00236903       0.00326628      -3.52196990
Pb       0.04101683       6.24395210      12.98623051      -0.00262434       0.00206685      -0.00025854      -4.39794710
I        3.15959266       7.06638718      13.07344442      -0.00020716      -0.00325094       0.00297088      -2.11762375
I       -0.79127029       9.39523342      12.73198448      -0.00447990      -0.00660086      -0.00536280      -2.12066121
I       -0.05583172       6.48084148      16.22840457       0.00128783       0.00294031      -0.00201467      -2.12619221
Cs      -3.20009845       3.17602285      16.22844424       0.00139734      -0.00146271      -0.00442168      -3.52020111
Pb       0.04693278       6.24866868      19.47576422       0.00036516      -0.00014540      -0.00091178      -4.40173571
I        3.16672960       5.41807430      19.39272240      -0.00064344       0.00105919      -0.00004146      -2.11223212
I        0.86782498       9.37673103      19.65117263       0.00188566       0.00180191       0.00076880      -2.11374085
I        0.14982636       6.03746886      22.72017826      -0.00292172       0.00468675       0.00013076      -2.12483613
Cs      -2.93842243       3.09857599      22.71265159       0.00006320      -0.00026295       0.00250345      -3.52160056
Pb      -6.22988770       6.23731775       0.00236597      -0.00025740      -0.00041249      -0.00055347      -4.40303836
I       -9.35776720      11.65407792      -0.07177524       0.00132229      -0.00086530       0.00005736      -2.11178916
I       -5.41014845       9.35476366       0.19604627       0.00036439       0.00080385       0.00350907      -2.11125576
I       -6.12537200       6.01850412       3.25044359      -0.00263629       0.00022849      -0.00102769      -2.12713314
Cs      -3.01704296       9.27861690       3.27150756      -0.00148458       0.00910450       0.00051574      -3.51867836
Pb      -6.21854987       6.24211639       6.48271383      -0.00035333      -0.00090618      -0.00335333      -4.39418026
I       -9.34413480      13.30516951       6.58524227       0.00044862      -0.00572662      -0.00157733      -2.11602187
I       -7.03752079       9.36207700       6.30927054      -0.00037720      -0.00300760      -0.00122870      -2.11502506
I       -6.32205238       6.45541874       9.73519103      -0.00330105      -0.00563905       0.00057556      -2.14566776
Cs      -3.34216294       9.27165757       9.75145538      -0.00338064      -0.00621496       0.00524443      -3.48406403
Pb      -6.23660748      12.47220909       0.01281532      -0.00039752       0.00019849      -0.00007380      -4.40320525
I       -3.10787038      13.29448490       0.10877129       0.00218509       0.00444258       0.00152708      -2.11166639
I       -7.06206948      15.58957375      -0.17192545      -0.00222143      -0.00062423      -0.00346252      -2.11044954
I       -6.31393983      12.69786922       3.26070419       0.00574482      -0.00335574      -0.00142880      -2.12442334
Cs      -9.47193900       9.40744475       3.24721487      -0.00031771       0.00011565      -0.00245105      -3.51954216
Pb      -6.23112980      12.48280468       6.50377070       0.00198276      -0.00486570      -0.00243450      -4.39859155
I       -3.07684386      11.63451218       6.48429871      -0.00830740      -0.00662500       0.00078096      -2.11836924
I       -5.41121883      15.59679860       6.68910616      -0.01020145      -0.00143232      -0.01593621      -2.11447405
I       -6.09971047      12.26791053       9.74098283      -0.01475412      -0.00125676      -0.00084022      -2.11732185
Cs      -9.21469326       9.33674080       9.73429328      -0.00473420       0.00452546       0.00239569      -3.51729998
Pb      -6.20647758       6.25041846      12.98946010       0.00088880       0.00096057       0.00331405      -4.39476303
I       -9.32477258      11.67055783      12.89810142       0.00145449       0.00275394       0.00141543      -2.11564661
I       -5.38212097       9.36766194      13.16552100      -0.00418438       0.00161730       0.01062871      -2.11864732
I       -6.10240123       6.03282205      16.22248664      -0.00219898       0.00215694      -0.00027883      -2.12708909
Cs      -2.99309678       9.28347869      16.24004613       0.00299845       0.00290169      -0.00494811      -3.51724410
Pb      -6.19687020       6.25536088      19.46955893       0.00021129       0.00025987       0.00059682      -4.40217853
I       -9.32144712      13.31762599      19.55331648       0.00144920      -0.00097213      -0.00194210      -2.11300253
I       -7.02210317       9.37302660      19.27079984       0.00155813       0.00087039      -0.00254967      -2.11208986
I       -6.28974134       6.48050437      22.70921303       0.00253793      -0.00009818       0.00069667      -2.12483106
Cs      -3.19462512       9.41744306      22.71604901       0.00202711      -0.00174792       0.00509015      -3.52152966
Pb      -6.20913258      12.48368335      12.97635235       0.00295695       0.00324265      -0.00035197      -4.39845062
I       -7.02126264      15.60064017      12.78445633      -0.00221871       0.00149022      -0.00229239      -2.11219015
I       -6.28430153      12.71387627      16.22263025       0.01015524       0.00135002      -0.00169425      -2.12762535
Cs      -9.45558575       9.41435854      16.22130533      -0.00132013      -0.00112972      -0.00472767      -3.51898805
Pb      -6.20083370      12.49163712      19.47167946      -0.00062445       0.00012566      -0.00039258      -4.40214758
I       -3.07358475      11.66059872      19.37807885       0.00147847      -0.00184260       0.00253950      -2.11298252
I       -5.38282157      15.60976992      19.67071909      -0.00119558      -0.00096748       0.00027133      -2.11204249
I       -6.09516422      12.27252446      22.71520040      -0.00161752       0.00118597       0.00000785      -2.12429245
Cs      -9.18899469       9.34247694      22.70792411      -0.00130030       0.00106218       0.00230732      -3.52162911
Pb       6.25584486       6.22095992       0.02567905       0.00003464      -0.00005771      -0.00059170      -4.40366325
I        3.11504454      11.63739191      -0.02948081      -0.00187375      -0.00450373      -0.00133895      -2.11257573
I        7.07320496       9.34013750       0.22337861       0.00130555       0.00034306       0.00472213      -2.11071984
I        6.35757728       6.00479799       3.27303924      -0.00419147       0.00322499      -0.00126163      -2.12596927
Cs       9.49739179       9.27548335       3.28715914       0.00229177       0.00155518      -0.00184379      -3.51925463
Pb       6.26527824       6.22473553       6.50666103      -0.00007300       0.00134490      -0.00331939      -4.39568693
I        3.09594394      13.29336694       6.69832628       0.00664918       0.00343586       0.00278154      -2.12361410
I        5.43313989       9.34118987       6.33068430       0.00529367       0.00137281      -0.00305234      -2.11954939
I        6.20742290       6.41719681       9.75869506       0.01476466      -0.01115037       0.00083329      -2.13832087
Cs       9.27341270       9.40838098       9.76069103       0.00303045       0.00155375       0.00348146      -3.51916834
Pb       6.24591739      12.45707915       0.03741684       0.00050513      -0.00049243       0.00094816      -4.40270991
I        9.36642301      13.27669269       0.12326069      -0.00137248       0.00051540       0.00142185      -2.11165759
I        5.42045046      15.57449672      -0.14949938      -0.00117766      -0.00101225      -0.00312490      -2.11137153
I        6.14162038      12.68334759       3.28691206      -0.00270738       0.00025291       0.00124606      -2.12725354
Cs       3.03229859       9.36441634       3.27081945      -0.00461931      -0.00099187      -0.00070716      -3.51771727
Pb       6.25424119      12.45737651       6.52980491      -0.00290082       0.00292820       0.00077667      -4.39677433
I        9.36734895      11.63285818       6.44126469      -0.00104371       0.00490278      -0.00065018      -2.11692065
I        7.05967393      15.57741848       6.73669305      -0.00206858       0.00092442       0.00239985      -2.11444749
I        6.34427699      12.24708357       9.76708286       0.00684393      -0.00020161       0.00175939      -2.11979509
Cs       3.37883490       9.20488203       9.75297752      -0.00206892       0.00102553       0.00188595      -3.49332257
Pb       6.27844339       6.23537922      13.01139044      -0.00058302      -0.00072870       0.00317307      -4.39699451
I        3.12292719      11.64731767      12.86801806       0.00801628      -0.00792033       0.00175032      -2.11812184
I        7.09092796       9.35568079      13.18714911       0.00251686      -0.00255057       0.00298446      -2.11357284
I        6.38016982       6.01810953      16.24596140      -0.00558789       0.00099570      -0.00000806      -2.12583184
Cs       9.51504814       9.29428189      16.26255430       0.00181783       0.00253108      -0.00429374      -3.52067392
Pb       6.28892448       6.23909332      19.49221583       0.00016254      -0.00013343       0.00045424      -4.40285751
I        3.15159659      13.30363791      19.56083749      -0.00172304       0.00228378      -0.00235821      -2.11318898
I        5.46127492       9.35594701      19.29921283       0.00220868       0.00119253      -0.00013503      -2.11223992
I        6.19671458       6.46365090      22.73223919       0.00390593      -0.00067614       0.00069429      -2.12416401
Cs       9.29658751       9.41148184      22.73566512       0.00008353      -0.00134104       0.00388377      -3.52196112
Pb       6.27825512      12.47442564      13.00786794      -0.00151394      -0.00458227       0.00195620      -4.39911274
I        9.38993368      13.29365413      13.09314285       0.00044680      -0.00261019       0.00113049      -2.11502247
I        5.45079692      15.58883158      12.83491088       0.00736415      -0.00072246       0.00981953      -2.11448231
I        6.16988640      12.69400108      16.24942745       0.00010798      -0.00307905      -0.00002953      -2.12384830
Cs       3.05502248       9.38275148      16.24180644       0.00027149       0.00530731      -0.00694889      -3.51800125
Pb       6.28145177      12.47413253      19.49533627       0.00023324       0.00032306      -0.00015697      -4.40217014
I        9.40042163      11.64497024      19.41236467      -0.00176544       0.00251734       0.00074522      -2.11296048
I        7.09895502      15.59304065      19.69421220      -0.00059051      -0.00033731       0.00173347      -2.11188969
I        6.37613910      12.25629908      22.74061560      -0.00582131       0.00109636       0.00099572      -2.12478774
Cs       3.30034660       9.32089295      22.72981559      -0.00344867       0.00232263       0.00172930      -3.52175399
Pb       0.00195199      12.46995261      -0.00928152       0.00013366      -0.00024174       0.00751752      -4.37698744
I       -3.12499394      17.88030563      -0.05420724       0.00092159      -0.00136885       0.00123339      -2.11133764
I        0.82435335      15.57554773       0.22273656       0.00440559      -0.00200625       0.00171015      -2.11117076
I        0.11661697      12.28370155       3.37531001      -0.00124152       0.00230529       0.00800345      -2.14599230
Cs       3.26586579      15.54213509       3.28227012      -0.00204876      -0.00307916      -0.00077185      -3.51809941
Pb       0.01300493      12.45177366       6.40272858      -0.00087749       0.00138249       0.01188035      -4.17022800
I       -3.10865187      19.51495984       6.61569294      -0.00239817       0.00140882      -0.00253332      -2.11367060
I       -0.83079252      15.54646257       6.42318824      -0.00429044       0.00683540       0.00092744      -2.12218986
I       -3.04878021      13.31987752      12.96389698      -0.00616512       0.00570249      -0.00208211      -2.12296721
Cs       3.18227194      15.78890410       9.74577328       0.01053392       0.00786885       0.00323225      -3.47386211
Pb      -0.00308335      18.69927594       0.03179203       0.00000925       0.00040767       0.00001582      -4.40331791
I        3.11853657      19.52016352       0.11972123      -0.00050383       0.00176991       0.00174370      -2.11092647
I       -0.82857508      21.81592790      -0.15197876      -0.00153536      -0.00134682      -0.00206760      -2.11138424
I       -0.09492815      18.90551465       3.28181733      -0.00004967      -0.00751683      -0.00017074      -2.12641644
Cs      -3.24488435      15.65168124       3.27474728       0.01049095      -0.00171947       0.00165269      -3.52035095
Pb       0.01249331      18.70333619       6.52828475      -0.00400317      -0.00280235      -0.00071467      -4.39802989
I        3.13055869      17.87113522       6.43545016      -0.00232426       0.00977963      -0.01389542      -2.11899070
I        0.82515082      21.81501490       6.72035522      -0.00596309      -0.00146363       0.00034675      -2.11635089
I        0.10449750      18.45420811       9.76119178      -0.00151109       0.01305829       0.00105347      -2.11646484
Cs      -3.12018533      15.69731538       9.75481763      -0.01022017       0.01057792       0.00223936      -3.46727548
Pb       0.04294362      12.46817550      13.10624197      -0.00071428       0.00156655      -0.01229749      -4.17107111
I       -3.10334508      17.89557596      12.92410192       0.00183698       0.00697144       0.01792414      -2.11475087
I        0.86392802      15.56241424      13.10256169       0.00895570       0.00702591       0.00129680      -2.11772317
I        0.09964938      12.28236239      16.13427305      -0.00391789       0.00036241      -0.00833063      -2.14600084
Cs       3.27628135      15.56106184      16.24673696      -0.00748392       0.00370364      -0.00801910      -3.51969699
Pb       0.03626941      12.48869787      19.51732498       0.00017352      -0.00002742      -0.00719575      -4.37635352
I       -3.08926315      19.54508713      19.57264957       0.00070112       0.00006296      -0.00091467      -2.11199252
I       -0.78999911      15.59330137      19.28593522      -0.00190331      -0.00147329      -0.00046000      -2.11248194
I       -0.04920354      12.69476882      22.72733072       0.00279419      -0.00062581       0.00101906      -2.13859735
Cs       3.05806755      15.66396268      22.72772576       0.00031898      -0.00347429       0.00208012      -3.52133108
Pb       0.01491024      18.71597204      12.99658411       0.00426297      -0.00236802       0.00173419      -4.39914314
I        3.13799414      19.52270649      13.07895163       0.00338082       0.00317482       0.00113712      -2.11362854
I       -0.80505561      21.82615696      12.81487659       0.00386102      -0.00096941      -0.00267683      -2.11468266
I       -0.07013548      18.92283640      16.24261899       0.00537620      -0.00540805       0.00000495      -2.12518827
Cs      -3.23574463      15.65209356      16.23333483       0.00277627      -0.01033906      -0.00787548      -3.51970320
Pb       0.03193379      18.71836511      19.49102997      -0.00040058       0.00057998       0.00012239      -4.40241552
I        3.15204560      17.88743962      19.40898572      -0.00120345       0.00195873      -0.00045797      -2.11278750
I        0.85005989      21.83588071      19.68810895      -0.00121083      -0.00124582       0.00067589      -2.11258044
I        0.13346800      18.49511464      22.73494749      -0.00302626       0.00045520       0.00049644      -2.12403734
Cs      -2.96490076      15.58004466      22.72711686       0.00011699      -0.00081406       0.00279703      -3.52136359
