18
Properties=species:S:1:pos:R:3 pbc="F F F"
I        0.73807097      -3.97817706       1.63142088
Cs      -1.65116390      -4.02048201      -1.47851979
I       -1.55246083      -1.71446695      -4.75867657
I       -4.50139971      -1.07029780      -1.40623560
I       -3.80535312      -3.96490672       1.99552537
Pb      -4.72665134      -0.89759168       1.79709242
I        4.57679079      -1.66059362       1.72770343
Pb       1.56400308      -0.89628229      -4.67170832
I        0.74243417       2.22072660      -4.86155548
I        1.37980444      -0.63716209      -1.38266725
Cs       4.58155835       2.28589896      -1.42208925
I        1.64320587       5.10621056      -1.41471669
Cs      -1.41664407       2.28721491      -1.52780034
Pb       1.65057622      -0.91074127       1.82414248
I       -1.54672684       4.38579709       1.75337911
I        2.36304645       2.20706689       2.02428108
I        1.62519345      -1.08038719       5.03572492
Cs      -1.66428396       2.33817371       5.13469962
18
Properties=species:S:1:pos:R:3 pbc="F F F"
I        0.79146708      -4.01632802       1.68055152
Cs      -1.60814031      -4.04313662      -1.47375320
I       -1.54492452      -1.77545554      -4.84982063
I       -4.54512078      -1.10444342      -1.43533671
I       -3.75062830      -3.98422232       1.99533848
Pb      -4.65933837      -0.91135512       1.77413430
I        4.58053618      -1.65693386       1.58112185
Pb       1.53697868      -0.91213265      -4.58536593
I        0.76558586       2.20621281      -4.84843115
I        0.93632724      -0.61629675      -1.30911509
Cs       4.64138643       2.31674104      -1.38818339
I        1.68905357       5.10039096      -1.41377218
Cs      -1.50713466       2.56002476      -1.61823052
Pb       1.64680241      -0.92811633       1.81914195
I       -1.48872740       4.35888208       1.82851657
I        2.44863233       2.17417034       2.01209849
I        1.67024250      -1.09218512       5.04089379
Cs      -1.60299790       2.32418380       5.19021180
18
Properties=species:S:1:pos:R:3 pbc="F F F"
I        0.85205563      -4.04088263       1.69281406
Cs      -1.60400942      -4.08586766      -1.45103874
I       -1.51818599      -1.81555010      -4.86643884
I       -4.62154061      -1.15197775      -1.46529561
I       -3.71007370      -3.99814110       1.98854148
Pb      -4.60658519      -0.92009704       1.74085911
I        4.62362134      -1.67723179       1.52005174
Pb       1.53789821      -0.92547825      -4.57585940
I        0.79531885       2.18848020      -4.84120625
I        0.39298847      -0.56470495      -1.08015677
Cs       4.77542796       2.37194522      -1.41440465
I        1.75757574       5.10189416      -1.42478310
Cs      -1.51972260       2.72733328      -1.66418112
Pb       1.66450643      -0.93445400       1.79951494
I       -1.44258787       4.35062021       1.84528454
I        2.52822877       2.15704999       1.98043336
I        1.66378754      -1.08430842       5.02961099
Cs      -1.56870359       2.30137070       5.18625432
18
Properties=species:S:1:pos:R:3 pbc="F F F"
I        0.89811886      -4.05449940       1.68423090
Cs      -1.59668309      -4.11365686      -1.45187368
I       -1.48731821      -1.81964926      -4.84914364
I       -4.68953947      -1.17574414      -1.49954234
I       -3.68639582      -4.00567114       1.97292416
Pb      -4.54971182      -0.91841376       1.69546430
I        4.69104000      -1.70099558       1.53062792
Pb       1.57896787      -0.93646192      -4.65568567
I        0.81847517       2.17664587      -4.85276892
I       -0.07761334      -0.56102928      -0.73806910
Cs       4.89036199       2.42621851      -1.44759450
I        1.79677937       5.10137653      -1.44355666
Cs      -1.50943995       2.79360084      -1.69619538
Pb       1.69240431      -0.94027258       1.80165374
I       -1.41761361       4.35342003       1.83494940
I        2.56973117       2.15024460       1.94590004
I        1.63025706      -1.07237465       4.99934249
Cs      -1.55182042       2.29726211       5.16933690
18
Properties=species:S:1:pos:R:3 pbc="F F F"
I        0.93533842      -4.06287758       1.66354229
Cs      -1.58141051      -4.12310494      -1.46146074
I       -1.45275451      -1.81067174      -4.82676367
I       -4.72876471      -1.18680457      -1.53488840
I       -3.66611796      -4.01455358       1.95296711
Pb      -4.48473037      -0.91500279       1.64899557
I        4.75409963      -1.72240511       1.54247907
Pb       1.62557990      -0.94248588      -4.73276996
I        0.84298210       2.16956773      -4.87961106
I       -0.46992101      -0.53065382      -0.36202982
Cs       4.91597535       2.42802695      -1.46598496
I        1.81989509       5.10025221      -1.46234762
Cs      -1.49027073       2.81328502      -1.72149501
Pb       1.72116714      -0.94624312       1.79638971
I       -1.39740647       4.36284233       1.82038809
I        2.59243391       2.14583549       1.92155646
I        1.60155468      -1.06180043       4.95015801
Cs      -1.53764998       2.29679385       5.15087485
18
Properties=species:S:1:pos:R:3 pbc="F F F"
I        0.96817253      -4.06638028       1.62030784
Cs      -1.56853877      -4.10677714      -1.47493224
I       -1.42165334      -1.79817147      -4.80983377
I       -4.76013611      -1.19700492      -1.57292123
I       -3.64443828      -4.02184007       1.92561382
Pb      -4.39706027      -0.90821540       1.59249672
I        4.80424442      -1.73603379       1.56905208
Pb       1.66656572      -0.94824514      -4.78692225
I        0.86318175       2.15945671      -4.88748461
I       -0.84588969      -0.47657100       0.05522346
Cs       4.93715302       2.42782203      -1.48524240
I        1.83782176       5.09775881      -1.48270398
Cs      -1.46862164       2.78584152      -1.73174617
Pb       1.73682647      -0.95110517       1.77459722
I       -1.37593489       4.36501189       1.79845018
I        2.60436861       2.14122180       1.89115763
I        1.58387893      -1.05591688       4.88149981
Cs      -1.51994027       2.28914852       5.12338788
18
Properties=species:S:1:pos:R:3 pbc="F F F"
I        0.98269790      -4.05996915       1.54578358
Cs      -1.58066656      -4.07174749      -1.48876405
I       -1.39775288      -1.78786973      -4.80548660
I       -4.74535771      -1.21302157      -1.59730162
I       -3.63940299      -4.03823910       1.90630013
Pb      -4.36100557      -0.91268870       1.57579725
I        4.84210441      -1.75948124       1.60164421
Pb       1.69963782      -0.95349926      -4.83493579
I        0.88202770       2.15223601      -4.90775171
I       -1.13241861      -0.32174726       0.56341799
Cs       4.95400072       2.42730958      -1.51179656
I        1.84832918       5.09132247      -1.50893650
Cs      -1.45303165       2.72745423      -1.73166573
Pb       1.76283789      -0.95601916       1.75435800
I       -1.35972954       4.38959072       1.75933026
I        2.61437024       2.13743817       1.85858412
I        1.57372865      -1.06178663       4.81282871
Cs      -1.49036893       2.21071804       5.00859424
18
Properties=species:S:1:pos:R:3 pbc="F F F"
I        0.96257633      -4.03615739       1.43621318
Cs      -1.62763356      -4.08665779      -1.52661940
I       -1.37966525      -1.77785166      -4.80053889
I       -4.62831375      -1.20332526      -1.60957068
I       -3.65701179      -4.04273644       1.87689881
Pb      -4.43250824      -0.91960666       1.60371067
I        4.86262029      -1.78854160       1.59543728
Pb       1.71717316      -0.95378474      -4.87805274
I        0.88702452       2.14852570      -4.92081446
I       -1.26982420      -0.14642223       1.14352471
Cs       4.95726124       2.43439460      -1.55548047
I        1.83421175       5.08751350      -1.54721481
Cs      -1.43908013       2.58219975      -1.68741710
Pb       1.78239283      -0.94982810       1.73534482
I       -1.36279303       4.45159253       1.69096483
I        2.62038427       2.14562399       1.79798576
I        1.64969829      -1.08492157       4.77400213
Cs      -1.47651274       2.13998331       4.87162630
18
Properties=species:S:1:pos:R:3 pbc="F F F"
I        0.92044450      -4.00405212       1.38361099
Cs      -1.63044815      -4.12762797      -1.59691811
I       -1.36512907      -1.76477336      -4.86407478
I       -4.38799568      -1.13137501      -1.60739066
I       -3.67040618      -4.03162360       1.81714751
Pb      -4.49741779      -0.91560219       1.62797886
I        4.83464198      -1.75196787       1.51964457
Pb       1.72471972      -0.94751188      -4.94564491
I        0.88092227       2.14717703      -4.92518525
I       -1.33706542      -0.07940802       1.61552349
Cs       4.89398673       2.38961856      -1.60260021
I        1.81621229       5.05492257      -1.58718171
Cs      -1.40847054       2.29802984      -1.59355586
Pb       1.75465841      -0.93111004       1.75786848
I       -1.39163029       4.49629042       1.57572843
I        2.57564281       2.16312870       1.75418820
I        1.81136417      -1.11692315       4.78589956
Cs      -1.52402984       2.25280802       4.88496134
