232
Lattice="-12.957396986651146 6.351727325886291 13.017959588757243 13.11604327292129 6.668741413988977 13.017959588757243 13.195366416056363 13.17897578392661 -6.508979794378622" Properties=species:S:1:pos:R:3 pbc="T T T"
Pb       6.78936298      19.57529424       6.50897979
I       10.04917212      19.53330391       6.50897979
I       -6.26565591       9.64438495      13.01795959
I        6.49735099      19.62980997       9.76346969
C       -3.11524077       9.72694685      16.27244949
H       -3.73883255      10.62406875      16.27244949
N       -3.70631525       8.54655748      16.27244949
H       -4.71716041       8.44730670      16.27244949
H       10.03159594      20.86449693       9.76346969
N       -1.80666975       9.86349244      16.27244949
H       -1.19275569       9.04612950      16.27244949
H       -1.36011953      10.78286245      16.27244949
Pb       0.27100292      19.49604072       6.50897979
I        3.53081205      19.45405038       6.50897979
I       13.28942428       9.88214552      13.01795959
I       12.93638792      13.19882912      -3.25448990
C        3.32379615       3.29596600       3.25448990
H        2.70020438       4.19308790       3.25448990
N        2.73272167       2.11557663       3.25448990
H        1.72187651       2.01632585       3.25448990
H        3.51323588      20.78524341       9.76346969
N        4.63236717       3.43251159       3.25448990
H       -7.71111576       8.96687598      16.27244949
H        5.07891739       4.35188160       3.25448990
Pb       0.11235663       6.47557198       6.50897979
I        3.37216576       6.43358164       6.50897979
I        0.25270415       9.72363847       6.50897979
I       -0.17965536       6.53008771       9.76346969
C        3.40311929       9.80620037       9.76346969
H        2.77952752      10.70332227       9.76346969
N        2.81204481       8.62581100       9.76346969
H        1.80119965       8.52656022       9.76346969
H        3.35458959       7.76477467       9.76346969
N        4.71169032       9.94274596       9.76346969
H        5.32560437       9.12538302       9.76346969
H        5.15824054      10.86211597       9.76346969
Pb      13.30772305      19.65454776       6.50897979
I       16.56753218      19.61255743       6.50897979
I        0.25270415       9.72363847      13.01795959
I       13.01571106      19.70906349       9.76346969
C        3.40311929       9.80620037      16.27244949
H        2.77952752      10.70332227      16.27244949
N        2.81204481       8.62581100      16.27244949
H        1.80119965       8.52656022      16.27244949
H       16.54995601      20.94375045       9.76346969
N        4.71169032       9.94274596      16.27244949
H        5.32560437       9.12538302      16.27244949
H        5.15824054      10.86211597      16.27244949
Pb       0.19167977      12.98580635       6.50897979
I        3.45148891      12.94381601       6.50897979
I        0.33202730      16.23387284       6.50897979
I       -0.10033221      13.04032208       9.76346969
Pb       0.19167977      12.98580635      13.01795959
I        3.45148891      12.94381601      13.01795959
I        0.33202730      16.23387284      13.01795959
I       -0.10033221      13.04032208      16.27244949
C        3.48244243      16.31643474      16.27244949
H        2.85885066      17.21355664      16.27244949
N        2.89136795      15.13604537      16.27244949
H        1.88052280      15.03679459      16.27244949
H        3.43391273      14.27500904      16.27244949
N        4.79101346      16.45298033      16.27244949
H        5.40492752      15.63561739      16.27244949
H        5.23756368      17.37235034      16.27244949
Pb       0.19167977      12.98580635      19.52693938
I        3.45148891      12.94381601      19.52693938
I       13.28942428       9.88214552       6.50897979
I       -0.10033221      13.04032208      22.78142928
C        3.48244243      16.31643474      22.78142928
H       15.81624765      10.86182932       9.76346969
N        2.89136795      15.13604537      22.78142928
H        1.88052280      15.03679459      22.78142928
H        3.43391273      14.27500904      22.78142928
N        4.79101346      16.45298033      22.78142928
H       -7.71111576       8.96687598       9.76346969
H        5.23756368      17.37235034      22.78142928
Pb       6.63071670       6.55482550       0.00000000
I       -3.06687116      12.86456249      13.01795959
I        6.77106422       9.80289199       0.00000000
I        6.33870471       6.60934123       3.25448990
C        9.92147936       9.88545389       3.25448990
H        9.29788758      10.78257579       3.25448990
N        9.33040488       8.70506453       3.25448990
H        8.31955972       8.60581374       3.25448990
H        9.87294966       7.84402819       3.25448990
N       11.23005038      10.02199948       3.25448990
H       11.84396444       9.20463654       3.25448990
H       11.67660060      10.94136950       3.25448990
Pb       6.63071670       6.55482550       6.50897979
I        9.89052583       6.51283517       6.50897979
I        6.77106422       9.80289199       6.50897979
I        6.33870471       6.60934123       9.76346969
C        9.92147936       9.88545389       9.76346969
H        9.29788758      10.78257579       9.76346969
N        9.33040488       8.70506453       9.76346969
H        8.31955972       8.60581374       9.76346969
H        9.87294966       7.84402819       9.76346969
N       11.23005038      10.02199948       9.76346969
H       11.84396444       9.20463654       9.76346969
H       11.67660060      10.94136950       9.76346969
Pb      19.82608311      19.73380128       6.50897979
I       23.08589225      19.69181095       6.50897979
I        6.77106422       9.80289199      13.01795959
I       19.53407112      19.78831701       9.76346969
C        9.92147936       9.88545389      16.27244949
H        9.29788758      10.78257579      16.27244949
N        9.33040488       8.70506453      16.27244949
H        8.31955972       8.60581374      16.27244949
H        9.95227280      14.35426256      -3.25448990
N       -1.88599289       3.35325807       3.25448990
H       -1.27207884       2.53589513       3.25448990
H       -1.43944267       4.27262808       3.25448990
Pb       6.71003984      13.06505987       0.00000000
I        9.96984897      13.02306954       0.00000000
I        6.85038736      16.31312636       0.00000000
I        6.41802785      13.11957560       3.25448990
C       10.00080250      16.39568826       3.25448990
H        9.37721073      17.29281016       3.25448990
N        9.40972802      15.21529890       3.25448990
H        8.39888286      15.11604811       3.25448990
H        9.95227280      14.35426256       3.25448990
N       11.30937352      16.53223385       3.25448990
H       11.92328758      15.71487091       3.25448990
H       11.75592374      17.45160387       3.25448990
Pb       6.71003984      13.06505987       6.50897979
I        9.96984897      13.02306954       6.50897979
I        6.85038736      16.31312636       6.50897979
C       10.00080250      16.39568826       9.76346969
H        9.37721073      17.29281016       9.76346969
N        9.40972802      15.21529890       9.76346969
H        8.39888286      15.11604811       9.76346969
H        9.95227280      14.35426256       9.76346969
N       11.30937352      16.53223385       9.76346969
H       11.92328758      15.71487091       9.76346969
H       11.75592374      17.45160387       9.76346969
Pb       6.71003984      13.06505987      13.01795959
I        9.96984897      13.02306954      13.01795959
I        6.85038736      16.31312636      13.01795959
I        6.41802785      13.11957560      16.27244949
C       10.00080250      16.39568826      16.27244949
H        9.37721073      17.29281016      16.27244949
N        9.40972802      15.21529890      16.27244949
H        8.39888286      15.11604811      16.27244949
H        9.95227280      14.35426256      16.27244949
N       11.30937352      16.53223385      16.27244949
H       11.92328758      15.71487091      16.27244949
H       11.75592374      17.45160387      16.27244949
Pb       6.71003984      13.06505987      19.52693938
I       -3.14619430       6.35432812       6.50897979
I        6.85038736      16.31312636      19.52693938
I       -6.69801542       6.45083419       9.76346969
C       -3.11524077       9.72694685       9.76346969
H       -3.73883255      10.62406875       9.76346969
N       -3.70631525       8.54655748       9.76346969
H       -4.71716041       8.44730670       9.76346969
H       -3.16377047       7.68552115       9.76346969
N       -1.80666975       9.86349244       9.76346969
H       -1.19275569       9.04612950       9.76346969
H       -1.36011953      10.78286245       9.76346969
Pb       6.78936298      19.57529424      13.01795959
I       10.04917212      19.53330391      13.01795959
I        6.92971051      22.82336073      13.01795959
I        6.49735099      19.62980997      16.27244949
C       10.08012564      22.90592263      16.27244949
H        9.45653387      23.80304453      16.27244949
N        9.48905116      21.72553327      16.27244949
H        8.47820601      21.62628248      16.27244949
H       10.03159594      20.86449693      16.27244949
N       11.38869667      23.04246822      16.27244949
H       12.00261072      22.22510528      16.27244949
H       11.83524689      23.96183824      16.27244949
Pb       6.78936298      19.57529424      19.52693938
I       10.04917212      19.53330391      19.52693938
I       19.88710749      16.47163341       6.50897979
I       19.45474798      13.27808264       9.76346969
C        9.92147936       9.88545389      -3.25448990
H        9.29788758      10.78257579      -3.25448990
N       -3.62699211      15.05679185       9.76346969
H        8.31955972       8.60581374      -3.25448990
H       -3.08444733      14.19575552       9.76346969
N       -1.72734661      16.37372681       9.76346969
H       -1.11343255      15.55636387       9.76346969
H       11.67660060      10.94136950      -3.25448990
Pb      13.22839990      13.14431339       0.00000000
I        3.53081205      19.45405038      13.01795959
I       13.36874743      16.39237989       0.00000000
I       12.93638792      13.19882912       3.25448990
C       16.51916256      16.47494178       3.25448990
H       15.89557079      17.37206369       3.25448990
N       15.92808808      15.29455242       3.25448990
H       14.91724293      15.19530163       3.25448990
H       16.47063286      14.43351608       3.25448990
N       17.82773359      16.61148737       3.25448990
H       18.44164765      15.79412443       3.25448990
H       18.27428381      17.53085739       3.25448990
Pb      13.22839990      13.14431339       6.50897979
I       16.48820904      13.10232306       6.50897979
I       13.36874743      16.39237989       6.50897979
I       12.93638792      13.19882912       9.76346969
C       16.51916256      16.47494178       9.76346969
H       15.89557079      17.37206369       9.76346969
N       15.92808808      15.29455242       9.76346969
H       14.91724293      15.19530163       9.76346969
H       16.47063286      14.43351608       9.76346969
N       17.82773359      16.61148737       9.76346969
H       18.44164765      15.79412443       9.76346969
H       18.27428381      17.53085739       9.76346969
Pb      13.22839990      13.14431339      13.01795959
I        3.37216576       6.43358164       0.00000000
I       13.36874743      16.39237989      13.01795959
I       -0.17965536       6.53008771       3.25448990
C        3.40311929       9.80620037       3.25448990
H        2.77952752      10.70332227       3.25448990
N        2.81204481       8.62581100       3.25448990
H        1.80119965       8.52656022       3.25448990
H        3.35458959       7.76477467       3.25448990
N        4.71169032       9.94274596       3.25448990
H        5.32560437       9.12538302       3.25448990
H        5.15824054      10.86211597       3.25448990
Pb      13.30772305      19.65454776      13.01795959
I       16.56753218      19.61255743      13.01795959
I       13.44807057      22.90261426      13.01795959
I       13.01571106      19.70906349      16.27244949
C        3.48244243      16.31643474       3.25448990
H       15.97489393      23.88229806      16.27244949
N        2.89136795      15.13604537       3.25448990
H       14.99656607      21.70553600      16.27244949
H        3.43391273      14.27500904       3.25448990
N        4.79101346      16.45298033       3.25448990
H        5.40492752      15.63561739       3.25448990
H        5.23756368      17.37235034       3.25448990
Cs       3.48244243      16.31643474       9.76346969
