232
Lattice="-12.957396986651146 6.351727325886291 13.017959588757243 13.11604327292129 6.668741413988977 13.017959588757243 13.195366416056363 13.17897578392661 -6.508979794378622" Properties=species:S:1:pos:R:3 pbc="T T T"
Pb       6.73354789      19.63880175       6.53639943
I       10.01255395      19.85565926       6.61611424
I       -6.40161590       9.66489648      13.31700927
I        6.67282303      19.37265820       9.73030541
C       -3.15151202       9.65693505      16.12437302
H       -3.53362576      10.00009950      15.15891611
N       -3.38018673       8.41104397      16.48648599
H        9.34021991      20.94555507       9.35020140
H       10.06747572      21.23026901      10.90225723
N       -2.49051187      10.51360313      16.87525199
H       -2.02426598      10.22956323      17.74035340
H       -2.34148071      11.47195933      16.57736072
Pb       0.24567898      19.50181956       6.52305686
I        3.52300426      19.31755716       6.74834365
I       13.45117951       9.88131107      12.73506032
I       13.22608000      13.28754756      -3.29044475
C        3.31191600       3.20790623       3.48416526
H        3.17228890       2.70541814       4.44552793
N        2.33802596       3.14950940       2.60160208
H        1.50381993       2.59514431       2.77857765
H        2.39312409       3.61817127       1.69777001
N        4.43793330       3.85563661       3.26801058
H        4.66063694       4.26420990       2.36013219
H        5.16995367       3.87469493       3.97308515
Pb       0.17591254       6.45174181       6.46324024
I        3.41520978       6.84279578       6.33006818
I        0.18159123       9.82037952       6.44723152
I        0.14076644       6.59074163       9.73773697
C        3.38999679       9.71960245       9.86634257
H        3.70368376       8.87762700      10.49014277
N        2.10756642       9.85072636       9.59624596
H        1.43309734       9.15964984       9.91951094
H        1.74108300      10.64500755       9.07343286
N        4.30819481      10.55348416       9.42439844
H        4.07959398      11.31635197       8.78066198
H        5.28364632      10.43615889       9.67523324
Pb      13.26517336      19.69400706       6.45868765
I       16.56095581      20.00287374       6.34146064
I        0.08262204       9.78661229      12.95344050
I       13.23357877      19.40840398       9.76644912
C        3.42377392       9.82745826      16.35884627
H        3.18072462      10.33715973      17.29516496
N        4.18802425      10.45542296      15.48542788
H        4.58363849      11.36897077      15.69239938
H        4.53010623       9.99448249      14.64093879
N        2.93018108       8.62480554      16.14369422
H        3.08387531       8.13516836      15.25642230
H       15.56349624      21.32578225      10.33351726
Pb       0.19507040      13.09938339       6.42754156
I        3.46384185      13.23241099       6.85987878
I        0.40211745      16.30125427       6.77900353
I       -0.05767146      13.10612334       9.68081490
Pb       0.23955485      12.98861598      12.95520728
I        3.52566782      13.34677338      12.78006310
I        0.39851325      16.31683912      12.80400902
I        0.29927384      13.13016714      16.19761620
C        3.32672509      16.23494089      16.24476435
H        2.33963834      15.93125784      15.88744066
N        4.37806713      15.91931839      15.51491978
H        4.28338869      15.34672132      14.67781436
H        5.31591876      16.20522638      15.78101897
N        3.41063100      16.90242487      17.37665722
H        4.30319598      17.20239655      17.76619836
H        2.57926191      17.09038261      17.93341501
Pb       0.19487566      13.06032714      19.40461744
I        3.48261354      12.86727525      19.37280670
I       13.18927655       9.92089893       6.42103222
I       -0.07722100      13.02854757      22.73671924
C        3.38502860      16.30209960      22.85812337
H       15.65756377      10.51891234      10.47457187
N        4.64942900      16.67038302      22.81562274
H        4.98196424      17.48198152      23.32825245
H        5.31854734      16.19711079      22.20662896
N        2.91222167      15.27416953      22.18492086
H        3.49041712      14.72798779      21.54320658
H        1.93487734      14.99900162      22.25768948
Pb       6.77376224       6.60068501       0.00027357
I       -3.00314014      12.87131936      13.17752868
I        6.83113184       9.80007220       0.12604327
I        6.72411079       6.61508661       3.22374152
C        9.96824934       9.99572542       3.22751195
H       10.58044921      10.65094980       3.85458247
N        8.87065016       9.48289498       3.74134011
H        8.57517189       9.68912241       4.69452906
H        8.30257296       8.79391226       3.23736241
N       10.35394286       9.76504542       1.98700912
H        9.82217955       9.14250243       1.37607404
H       11.23008803      10.12605462       1.61503829
Pb       6.66303924       6.59322951       6.51318425
I        9.91575717       6.54760046       6.35613745
I        6.78052590       9.86409053       6.75566759
I        6.68881228       6.57036520       9.72485550
C        9.78236230       9.98364003       9.73717189
H        9.13668960      10.83659930       9.50897143
N       10.58754446      10.07099345      10.77441523
H       10.59822242      10.90681141      11.35868366
H       11.22104796       9.31411279      11.03289403
N        9.72081661       8.92134509       8.96485843
H       10.33526917       8.11755497       9.10052805
H        9.05793001       8.87773561       8.19445674
Pb      19.85358653      19.82422775       6.44785852
I       23.09563117      19.88148774       6.54750508
I        6.72546253       9.86823774      12.71276964
I       19.63910282      19.83899261       9.71098064
C        9.83861460       9.70427808      16.23445811
H        9.33480555       8.75241722      16.05115778
N       -3.18711322       3.46891943       4.45813627
H       -3.60606292       2.94233469       5.21947114
H       -2.78424017       4.37857928       4.68793778
N       10.33286379      10.36198738      15.20583057
H       10.87244433      11.22329551      15.32713680
H       10.22829164      10.00044609      14.26582465
Pb       6.64648181      13.02386526       0.03482311
I       10.00011190      13.22636183      -0.08768058
I        6.67218763      16.33315638       0.03153226
I        6.56164867      13.10713810       3.23940921
C       10.02287302      16.37275179       3.30453385
H       10.17616533      15.55959117       4.02025016
N       10.32367528      16.17099092       2.03814550
H       10.61409966      15.25901907       1.69055629
H       10.27062587      16.94097995       1.36667280
N        9.55305030      17.52261794       3.74489190
H       -3.86292970       5.10476899       9.61135391
H        9.33210402      17.66470933       4.72656285
Pb       6.80064537      13.19132929       6.46452366
I        9.98312017      13.04911389       6.26300768
I        7.10475161      16.38033323       6.56951264
C        9.86600787      16.40768631       9.75685621
H        8.80250638      16.63900989       9.65605986
N       10.42577908      16.54324375      10.94081882
H        9.87693519      16.84555365      11.74153313
H       11.41074070      16.33564033      11.10409296
N       10.52211481      16.01997625       8.68237871
H       11.50923124      15.76337062       8.71707346
H       10.03757679      15.88804992       7.80018968
Pb       6.81240134      13.10258669      12.89124543
I       10.05443925      13.14025037      12.82690066
I        7.06015038      16.35357859      12.93479288
I        6.87454948      13.22811904      16.22535055
C       10.05871969      16.31589408      16.09962044
H        9.82499315      15.87030002      15.12901049
N       11.31475343      16.58844711      16.38693617
H       12.05255640      16.38019769      15.71603392
H       11.60904916      16.84555701      17.33360435
N        9.06499784      16.55713059      16.93195939
H        9.19332067      17.15935026      17.74722144
H        8.11529467      16.29491478      16.69567518
Pb       6.71525220      13.05303958      19.45606490
I       -3.12393714       6.30983829       6.81086462
I        6.65914528      16.35881869      19.60837182
I       -6.55453070       6.66897684       9.69957740
C       -2.98378565       9.65488153       9.76816499
H       -2.05854106       9.37577914      10.27836060
N       -4.11235583       9.61072659      10.44807836
H       -4.14693363       9.28160808      11.40846293
H       -4.97069636       9.99869083      10.06119293
N       -2.92787815      10.02295835       8.50390322
H       -3.77416630      10.24341937       7.97917903
H       -2.04400304      10.03327118       7.99267409
Pb       6.75461845      19.51371483      12.96925098
I       10.05003333      19.61619192      13.14650376
I        6.71050971      22.84262728      13.03376698
I        6.58053198      19.44708565      16.23709486
C        9.98944753      22.91691118      16.28272636
H        9.02863831      22.78515926      16.78549061
N       11.05966079      23.14601943      17.02147816
H       11.00222710      23.22547883      18.03060917
H       11.95808825      23.36520615      16.59720448
N       10.04031534      22.83091807      14.96884581
H       10.92653105      22.89840976      14.45969250
H        9.19685549      22.67592299      14.41886022
Pb       6.72709294      19.63613165      19.50446621
I       10.06218631      19.57963588      19.08424467
I       19.75117240      16.52080644       6.78229283
I       20.07125858      13.13517732       9.72753472
C       10.05529239       9.84807751      -3.18494997
H       -1.89808913      16.11263747      10.25757290
N       -3.30880790      15.27590792       8.98677205
H       -2.71843438      14.48098910       8.75813651
H       21.85332525      15.65311109       8.52742322
N        9.31162848      10.87440723      -2.82955967
H       21.48870152      17.69386670       9.81535708
H        9.63313593      11.54719129      -2.13162222
Pb      13.33840386      13.21372615      -0.04908757
I        3.55878637      19.28220123      12.72265924
I       13.64247063      16.46014867      -0.04242986
I       13.30990128      13.15668677       3.21443003
C       16.33087411      16.46865855       3.28532096
H       15.34600026      16.81142418       3.61600662
N       17.22737659      17.37515717       2.94781567
H        3.82798067       5.18614954       9.52046416
H       18.11376877      17.11968988       2.51404970
N       16.56584600      15.17430092       3.24822153
H       17.50303264      14.78566539       3.09148105
H       15.82814547      14.51099650       3.48178500
Pb      13.24673688      13.22044989       6.49441574
I       16.50149858      13.27194350       6.74158350
I       13.33318024      16.44624692       6.23976135
I       13.23304874      13.47469017       9.74657553
C       16.38307008      16.47178518       9.84147791
H       15.42878801      16.18506808      10.29163365
N       16.47826263      17.65527823       9.27339656
H       15.67498455      18.28521613       9.27008913
H       17.37454302      18.03532724       8.96606885
N       17.38240684      15.61307245       9.89172870
H       18.23138065      15.75806872       9.34525005
H       17.27730472      14.71687557      10.35776852
Pb      13.28277974      13.13478548      12.95681777
I        3.45368113       6.31573143      -0.18914105
I       13.45911374      16.35010212      13.26387395
I       -0.21567596       6.30248775       3.23005004
C        3.38614625       9.80212726       3.21448199
H        3.04987485      10.50104045       2.44385687
N        3.77658032      10.28694185       4.37721321
H        3.76806522      11.28419081       4.57078994
H        4.10707040       9.67161355       5.12008033
N        3.38083446       8.51140541       2.94548854
H        3.66166777       7.83117942       3.65397678
H        3.12677805       8.15497615       2.02663328
Pb      13.30365066      19.61152843      13.05031035
I       16.55589468      19.45499411      12.88395103
I       13.25697222      22.87601222      12.97795924
I       13.75794195      19.92269038      16.24326504
C        3.37563277      16.31373395       3.25526103
H        2.61214430      15.88225356       3.90971655
N        3.99237348      17.40871488       3.64928195
H        3.77877827      17.84862001       4.54585154
H       -8.47716548       4.68168166       9.59679922
N       16.73798602      22.38864182      15.12491147
H       17.50512190      22.69193273      14.51504591
H       16.25566843      21.53186484      14.86145386
Cs       3.48459470      16.35123250       9.77912658
