233
Lattice="-12.957396986651146 6.351727325886291 13.017959588757243 13.11604327292129 6.668741413988977 13.017959588757243 13.195366416056363 13.17897578392661 -6.508979794378622" Properties=species:S:1:pos:R:3:forces:R:3:energies:R:1 energy=-1065.227228973329 stress="-8.141769645995817e-05 0.00042412666361390237 -0.00019423623819236796 0.00042412666361390237 -0.0006091089637043688 0.0002704000290062118 -0.00019423623819236796 0.0002704000290062118 -0.0007094101475788313" free_energy=-1065.227228973329 pbc="T T T"
Pb       6.73858919      19.52807277       6.58667973      -0.00075710      -0.00415755       0.00612751      -4.62929732
I       10.03544780      19.31221401       6.42433421       0.00271585      -0.01412570      -0.00561548      -1.91817286
I       -6.26392610       9.60609599      13.07864674      -0.00401446       0.00152364       0.00319524      -1.98760765
I        6.56750458      19.39775765       9.79746781      -0.00057470      -0.00603678       0.00549317      -2.01997921
C       -3.17077793       9.81376129      16.27721808      -0.01480781       0.01165224      -0.00465422      -8.92822487
H       -3.66304371      10.77217780      16.09005134      -0.02966500       0.00788480       0.01997109      -3.43768497
N       -2.23314412       9.75788867      17.19926607       0.00180476       0.01371131       0.00365845      -8.67947315
H       -1.97410962      10.58089193      17.73673688      -0.02260630       0.01304362       0.01243952      -3.78687785
H       -1.71030099       8.89989215      17.37871721       0.00467494       0.02584665      -0.01366753      -3.70944189
N       -3.55608227       8.76761919      15.57375987       0.00715708       0.02828216      -0.01357857      -8.68303427
H       10.14924856      21.06559721       9.10726303       0.02483542       0.02174075      -0.02685997      -3.66471700
H       -4.28685615       8.85802570      14.86737720       0.00319910       0.01603454      -0.00903234      -3.84045798
Pb       0.29172346      19.55269997       6.58650152       0.00734144      -0.01182140       0.00197379      -4.64295887
I        3.52635457      19.34677001       6.74664175       0.00342859      -0.00011562      -0.00039344      -1.98270390
I       13.26539690       9.84810379      13.04225769       0.00596495      -0.00073474       0.00587766      -1.92942432
I       13.38218194      12.96930438      -3.20357882       0.01455099      -0.01861483       0.00715048      -2.04819371
C        3.22323208       3.27169466       3.17067508      -0.01610114      -0.00191694      -0.01797646      -8.92807950
H        2.55312948       3.37110668       2.31107228      -0.01762754      -0.00652515      -0.01521764      -3.44507392
N        3.31933379       2.09725182       3.76102811      -0.01047279      -0.00262037      -0.00669791      -8.70231837
H       15.96611380      14.48037996      -3.06082971      -0.01864490      -0.00239427      -0.00596833      -3.79143225
H       17.12782343      15.13080959      -1.94662969      -0.02034261       0.00257993      -0.00685522      -3.67123697
N        3.89239896       4.32941884       3.57484924      -0.01319355      -0.00608683      -0.01821596      -8.67603937
H        4.55259868       4.27593652       4.35512099      -0.01439742       0.00137474      -0.01959838      -3.73195867
H        3.83318327       5.20890728       3.06967056      -0.01183727      -0.00535335      -0.02697345      -3.77598002
Pb       0.14369095       6.51919419       6.58274304       0.00671506      -0.00483111       0.00704581      -4.66128604
I        3.36417308       6.78030749       6.43047851       0.00748833       0.02476096       0.00856145      -1.95233268
I        0.16779971       9.73322005       6.94252159      -0.00207155      -0.00234157       0.01554843      -1.96784034
I        0.14542707       6.54948768       9.79528875      -0.00750742      -0.02229542       0.00867809      -1.92521430
C        3.41240954       9.85537394       9.73192568      -0.00040533       0.01050321      -0.00987165      -8.88845041
H        2.78577314      10.50172673       9.11173725       0.00337895       0.01402656      -0.00340167      -3.45518376
N        2.84301089       9.16921344      10.70057602      -0.00168529       0.00797087      -0.00255278      -8.64706391
H        1.84467473       9.23783801      10.88591330      -0.00040771       0.01595417      -0.00588745      -3.81671629
H        3.35722969       8.48195649      11.25711295      -0.00689797       0.00285610      -0.01123353      -3.73555638
N        4.70603452       9.80530076       9.48236768      -0.00022849      -0.00577452      -0.00969627      -8.70087961
H        5.33519925       9.22394325      10.03650955      -0.00061999       0.00447964      -0.00671884      -3.69950502
H        5.11465514      10.31538425       8.70425573       0.00060286      -0.00094113      -0.01065291      -3.78365827
Pb      13.21003688      19.52711140       6.50951173       0.00136942       0.00032743       0.00475207      -4.66104565
I       16.59691488      19.53971140       6.45912252       0.00764390       0.02221497       0.00589835      -2.08597102
I       -0.17607557       9.72150219      12.85148863      -0.02489670      -0.00277386      -0.02441090      -1.99385032
I       12.92722396      19.71839990       9.79714524      -0.01704141       0.01947465       0.00491650      -2.04262464
C        3.36911278       9.96567469      16.21743589      -0.00710763       0.02974676      -0.01420028      -8.94726254
H        3.15383268      11.03116915      16.32251764      -0.01633900       0.02927333      -0.01317872      -3.43513181
N        3.51417074       9.25053147      17.31214113      -0.00794095       0.02755194      -0.00945217      -8.73540968
H        3.37114167       9.67562317      18.22260188      -0.01332594       0.02939969      -0.01314781      -3.75525836
H       17.00820016      21.45442483      10.79164327      -0.00212536       0.03044996      -0.00882847      -3.68478593
N        3.45964108       9.45824790      15.00519977       0.00305671       0.02937020      -0.00870761      -8.73207357
H        3.63592299       8.46706076      14.83496022      -0.00118856       0.02702553      -0.01220216      -3.69699489
H        3.38354166      10.06656325      14.19495903       0.01206261       0.03033171      -0.01051355      -3.75439717
Pb       0.25918472      12.93325483       6.62429178       0.00786267      -0.00162591       0.01453141      -4.64676855
I        3.48558801      12.99889182       6.74058246       0.00769271      -0.00306845       0.00868548      -1.94932627
I        0.20919448      16.21184452       6.60262457      -0.01910562      -0.00230746       0.00062862      -2.07983968
I        0.50562944      13.18288618       9.83711808       0.00495160       0.01613378       0.01154460      -2.01682560
Pb       0.17287679      12.95914224      13.11357221      -0.00190910      -0.00347602      -0.00422605      -4.64200404
I        3.43520725      12.85747354      13.09089914       0.00256917      -0.00631788       0.01475052      -1.99301572
I        0.46256242      16.23954997      13.22930389      -0.01152628      -0.00345175       0.02559228      -2.01000462
I       -0.00775382      12.99954619      16.31601418       0.01280101      -0.02487807       0.00781719      -1.95154096
C        3.47773783      16.30264653      16.24776365       0.00072234      -0.00703924      -0.00594630      -8.92884998
H        3.45324036      15.71223176      15.32717404      -0.00349159      -0.01264038      -0.00071372      -3.42754135
N        2.81815830      17.44039612      16.28377709       0.00173264      -0.00491350       0.00215432      -8.62174078
H        2.30941010      17.77748751      15.47158490      -0.00854605      -0.01077340      -0.01023572      -3.80285506
H        2.82778241      18.02953080      17.12254362       0.00180924      -0.00462013      -0.01318449      -3.76070020
N        4.15555783      15.83467530      17.27610435       0.00752600      -0.00362434      -0.00996455      -8.66777895
H        4.27268119      16.38197649      18.12825283       0.01315630       0.00893594      -0.00752044      -3.65666449
H        4.69115689      14.97058236      17.19425821       0.00600088       0.00333374      -0.00181661      -3.84378546
Pb       0.28336001      12.93884305      19.48925494       0.00441433      -0.00938650       0.01983110      -4.66131101
I        3.48837877      12.63067377      19.45761286       0.00595679      -0.03135145      -0.00427805      -1.95864922
I       13.15844196       9.83843621       6.48390657      -0.02009147      -0.00582921      -0.00550545      -1.93188729
I        0.37363229      12.80804125      22.83869647       0.00002304       0.00176702       0.00833578      -2.05546342
C        3.47494154      16.30274034      22.76855799      -0.00019937       0.00789754      -0.00295083      -8.87949465
H       15.64400253      10.59200915       9.34486485       0.00560927      -0.00091309       0.00212481      -3.46523709
N        4.66673677      16.82316659      22.98151915       0.00819760       0.01565216      -0.00261989      -8.69684622
H        4.88638382      17.79503527      22.76790487       0.00266038      -0.01006911       0.00057891      -3.80423121
H       -7.70591488       9.60588276      10.39498716       0.01032522      -0.00403735      -0.00038486      -3.68226648
N        3.19230218      15.04304628      23.02893247       0.00589411      -0.01354398       0.00259743      -8.63898967
H       -9.21047946       7.73710247      10.36429876       0.00829332      -0.00134788      -0.00628794      -3.68669849
H        2.26130535      14.65010568      22.88189120       0.00585804      -0.00139178       0.00161881      -3.84798423
Pb       6.62736655       6.53921367       0.00391466       0.00277912       0.00372407       0.00043976      -4.65875760
I       -3.07747237      13.02374775      13.07330639       0.00345398       0.02029602      -0.01198630      -1.94224564
I        6.60000409       9.80974435       0.05147107       0.00971428       0.00096511       0.01444839      -1.99088829
I        6.59231868       6.63622750       3.25455250       0.02735958      -0.02402892      -0.00055216      -1.96055393
C       10.00359142       9.89385609       3.23688761       0.01915198       0.00825135      -0.00413390      -8.91073160
H       11.02459650       9.50326773       3.26724982       0.02326357       0.01489417      -0.00277723      -3.43431861
N        9.04258508       9.08491847       2.84020188       0.02598615       0.00163718      -0.00544427      -8.70234821
H        9.24664427       8.15267690       2.49010599       0.02981629       0.00422370      -0.00356142      -3.80830035
H        8.07092434       9.38234987       2.79220430       0.01985871      -0.00633876       0.00126378      -3.64941795
N        9.78508895      11.13825418       3.61011079       0.00918350       0.00513689      -0.00425765      -8.65449315
H        8.85051571      11.55444891       3.59048446       0.00847723      -0.00021583      -0.00406161      -3.73271808
H       10.55479262      11.74987206       3.87539458       0.00623523       0.01134313       0.00020040      -3.82081606
Pb       6.68336850       6.58410381       6.49832559       0.00303233       0.00057307      -0.00414654      -4.67010475
I        9.92808877       6.50652463       6.54826257       0.00789330      -0.01393298       0.01070369      -1.95584547
I        6.70991367       9.83975905       6.23958734       0.02227782       0.00058594      -0.01050391      -1.97457461
I        6.67416169       6.56617616       9.76451738       0.02330361      -0.00157949      -0.00344241      -1.97457682
C        9.87723687       9.93534896       9.86016542       0.00080892      -0.00150633       0.02298575      -8.90923742
H        9.74199625      10.06986020      10.93572002       0.00006920      -0.00085734       0.02010443      -3.44576125
N        9.08993814      10.60256757       9.04129102      -0.00736791       0.00740640       0.01290837      -8.69286068
H        8.40237120      11.26909894       9.39205010      -0.00030024       0.00340679       0.02178194      -3.84621063
H        9.18661781      10.53456106       8.03039973      -0.00784327       0.00304818       0.02031624      -3.64785892
N       10.80957043       9.10498166       9.43811916      -0.00445751       0.00160768       0.02038177      -8.68723208
H       11.00019599       8.97044395       8.44495737       0.00373325       0.00959661       0.01313292      -3.69626612
H       11.40420645       8.59854872      10.08775300      -0.00706910      -0.00046458       0.01233628      -3.77863499
Pb      19.95486698      19.76168030       6.48964793       0.00387927       0.00273486      -0.00562949      -4.66230849
I       23.12909677      19.99595135       6.45101378       0.01105602       0.02916432      -0.00569820      -1.92915137
I        6.75849217       9.82512535      12.86601831       0.00192659       0.00054814      -0.02253267      -1.94164019
I       19.75866300      19.87176013       9.74659398       0.02013670       0.02182842      -0.00385503      -1.95870530
C        9.90921649       9.84019790      16.27089038       0.00235569      -0.01444335      -0.00068277      -8.92676148
H        9.22129887       8.99252784      16.20803845      -0.00512431      -0.01140169       0.00828969      -3.43863788
N        9.48998104      11.02354073      15.86784755       0.00712281      -0.01061394      -0.00568146      -8.71655799
H        8.54222789      11.17109153      15.53216495      -0.00076528      -0.00665467       0.01064973      -3.78175497
H       10.11950423      11.82515013      15.86478435       0.00568828      -0.01580930      -0.00686681      -3.67132893
N       -1.99473776       2.97318723       3.73065334      -0.00058991      -0.02323286      -0.01002102      -8.69120755
H       -1.33797167       3.74914050       3.83211283       0.00698138      -0.01905937      -0.00913986      -3.71403577
H       -1.67612897       2.04736255       4.00186246      -0.00316421      -0.01683984      -0.00237809      -3.78190635
Pb       6.79319590      13.08988796      -0.09604902      -0.00367235       0.00431625      -0.00199668      -4.65813811
I        9.97812241      13.04819966      -0.19342986       0.00408278      -0.00581655      -0.03350529      -1.92321380
I        6.96390637      16.31427409      -0.07147120       0.01663646      -0.00167507      -0.00221679      -1.88863651
I        6.66373316      13.27246967       3.27224618       0.02570517       0.03891249       0.00134243      -2.04966563
C       10.00143990      16.27228295       3.24986630      -0.00741576      -0.02834740       0.00470456      -8.91925912
H       10.21145588      15.20155937       3.29785322      -0.00065079      -0.02478900       0.00876929      -3.44680331
N       10.92923024      17.06710301       2.75902427      -0.00068892      -0.01639069      -0.00155682      -8.70654926
H       11.79853541      16.69848449       2.38218395      -0.00040723      -0.02612274       0.00642563      -3.79349428
H       -2.41035265       4.89206100       9.16923686      -0.00454387      -0.02865901      -0.00921059      -3.67948484
N        8.83764853      16.70801178       3.69094733       0.00086780      -0.02430693      -0.00427678      -8.68735020
H        8.57658075      17.69541158       3.65194035      -0.00693649      -0.02325680      -0.00841348      -3.72431257
H        8.15827593      16.07070473       4.09596756      -0.00928748      -0.02684149      -0.01542872      -3.76898305
Pb       6.69934001      13.08014605       6.51355232       0.01019733       0.00346100      -0.00008750      -4.63392586
I        9.97604083      13.29144298       6.65692799       0.00651296       0.00988394       0.02068222      -1.91942712
I        6.64575760      16.28771804       6.76946575      -0.01459211       0.00141779       0.00165795      -2.00403510
I        6.48176393      13.21234672       9.78330775      -0.00311510       0.00769344       0.00404790      -2.04824801
C        9.95576620      16.39263646       9.78390733      -0.00784262      -0.02536422       0.00779785      -8.91468163
H        9.06720033      15.76717191       9.90187864       0.00453754      -0.01281522       0.00868005      -3.43290665
N       11.13712998      15.80864545       9.70762727       0.00843742      -0.00246065       0.00198475      -8.75946557
H       11.24303364      14.79985273       9.76003132       0.00217601      -0.00987856       0.00328198      -3.76565958
H       11.97259650      16.34627847       9.48626740      -0.00441304      -0.01268349      -0.01654490      -3.63522285
N        9.81001518      17.69930670       9.73038687       0.00231545      -0.00086308       0.00581069      -8.58817129
H       10.62532823      18.31596365       9.66178444      -0.00544636      -0.00491812       0.01089091      -3.75646110
H        8.88659062      18.13675499       9.77456241      -0.00998346      -0.01126197       0.00893521      -3.86827894
Pb       6.66338238      13.05922576      12.99267079       0.00655341       0.00314578       0.00064142      -4.63936373
I        9.97514942      13.05515345      12.72631633      -0.00038780       0.01616491      -0.01960159      -1.96089878
I        6.63064589      16.31985057      12.88379154      -0.01260065      -0.00096425       0.00691481      -2.00806416
I        6.49262131      13.08235577      16.28466494       0.01984338       0.00413889       0.00563307      -1.99053522
C        9.93781217      16.47395229      16.26952370      -0.01210347       0.01539169       0.00004633      -8.91665118
H        9.47393421      17.44085645      16.48172323      -0.02538911       0.00602708       0.00283015      -3.44080242
N        9.64868955      15.87630057      15.13076492      -0.01077804       0.01414537      -0.00451353      -8.67830163
H        8.97186456      16.27141164      14.47966783      -0.01329797       0.00430720       0.00481506      -3.81058923
H       10.06503018      14.98423366      14.85988635       0.00346661       0.01679040      -0.00452463      -3.68796870
N       10.76228054      15.96272699      17.16023068       0.00161737       0.02102945      -0.00699740      -8.66985698
H       11.24010064      15.07065127      16.99675466       0.00317882       0.02524666      -0.00542186      -3.76704759
H       10.96296411      16.44366169      18.03275749      -0.00639561       0.02166460      -0.00395478      -3.75774897
Pb       6.77597311      13.01782603      19.52969179       0.00805270      -0.00407180       0.00424417      -4.66258051
I       -3.13539584       6.41763808       6.63967970       0.00543396       0.00377982       0.02130221      -1.90656893
I        6.94036640      16.32906374      19.66326671       0.00064410      -0.00267220       0.00514719      -1.93250224
I       -6.47132080       6.60273075       9.82301903       0.00218985      -0.00947959       0.00304686      -2.05305277
C       -3.22687647       9.75227533       9.69491780      -0.02099559      -0.00756820      -0.01343377      -8.92379523
H       -4.12891573       9.88033368       9.08989088      -0.00788555       0.00379957      -0.02628957      -3.45831295
N       -2.36845692      10.74839159       9.76132843      -0.00428738       0.01407582      -0.00951022      -8.71241911
H       -2.49753429      11.58435994       9.19731978      -0.00645150      -0.00156809      -0.01702697      -3.77634509
H       -1.52970060      10.69049123      10.33985980      -0.02213618       0.00882991       0.00074525      -3.68560586
N       -3.05595973       8.60781687      10.32350672      -0.01766960       0.02017965      -0.00994850      -8.69094221
H       -2.20910231       8.41163203      10.85760749      -0.02986198       0.00887791       0.00561435      -3.71525677
H       -3.75705477       7.87413851      10.27620054      -0.02694227       0.00554790      -0.01125020      -3.79144452
Pb       6.75195854      19.57623310      13.07324228      -0.01118776       0.00030227      -0.00551109      -4.64238561
I        9.99141719      19.62491809      13.14031036      -0.00181007       0.00649045       0.00446259      -1.92131707
I        6.59459754      22.83206377      12.82758035      -0.04460491      -0.00074604      -0.01456740      -1.97500561
I        6.75697039      19.59150028      16.27667997       0.01186144      -0.02271750       0.00255756      -1.96862582
C        9.97388070      22.87044518      16.24560281      -0.01120817       0.00294337      -0.00126928      -8.91470055
H        9.13398549      23.26331295      15.66673362      -0.01537463      -0.00534826       0.00240507      -3.43679731
N       10.10015449      21.56470335      16.37796604       0.00634592      -0.01131949       0.00118997      -8.70882200
H        9.42379289      20.92788391      15.96320968      -0.00997325      -0.00912547      -0.00346640      -3.79707576
H       10.90358757      21.14097727      16.84117937      -0.01005984      -0.00184706      -0.00665267      -3.68578936
N       10.81967690      23.72656698      16.78360077      -0.01872523      -0.00920542      -0.00461166      -8.72823878
H       11.60258667      23.42237503      17.36420928      -0.01485858      -0.00439165       0.00908039      -3.71693832
H       -2.50285048      11.54717965      23.18574402      -0.01627145      -0.00487400       0.00478308      -3.72803882
Pb       6.82579528      19.55008673      19.53510614       0.00490308      -0.00273703       0.00664585      -4.66949768
I       10.09841112      19.45796178      19.58533662       0.00368826      -0.00506193       0.00046109      -1.97340160
I       19.73532613      16.50099479       6.42416898      -0.00120308      -0.00054738      -0.00655784      -1.97457985
I       19.69323794      13.50708786       9.76898933      -0.00580212       0.00612875      -0.00040817      -1.97950669
C        9.86636236       9.89500187      -3.26481640      -0.00824511      -0.00246354      -0.00583947      -8.89788604
H        8.98724634      10.06220194      -2.63674549      -0.01455043      -0.00384782      -0.00721154      -3.44095323
N       -1.94586272      15.95151944      10.33845843      -0.00890403       0.00389083       0.00326596      -8.73701987
H       -1.86314538      15.87765647      11.34729974      -0.01696575       0.01307845       0.00800969      -3.75156062
H       -1.12243500      15.69582294       9.79482596      -0.00830890       0.00201891       0.01387979      -3.67203060
N        9.74976895      10.00705118      -4.57352372      -0.00805862      -0.00735068       0.00234897      -8.66746219
H       -2.38938549      16.28645363       7.83749803       0.00584216      -0.00071006      -0.00167566      -3.70311536
H       21.96076506      16.82411419       7.99549994       0.00066177      -0.01597916      -0.00645919      -3.83537181
Pb      13.17895428      13.08124412       0.04345612       0.01103758      -0.00098641       0.00943077      -4.62263066
I        3.49677864      19.22110290      13.03177419       0.00078570      -0.00054455       0.00611847      -1.97478615
I       13.56024540      16.40759138       0.07002443       0.01688731      -0.00113925      -0.00010531      -2.02001772
I       12.87403069      13.33192864       3.28649943       0.00003463       0.01459362       0.00681400      -2.01150406
C       16.58040321      16.46668767       3.33595590       0.01884063      -0.01202693       0.01240174      -8.93774122
H       17.13351757      16.18672281       4.23682938       0.01865818       0.00071636       0.01669625      -3.44003085
N       16.53671439      17.74071280       2.99744960       0.02685721       0.00830267       0.00444564      -8.71599123
H        3.81439404       5.26411389      10.06738070       0.01959909       0.00079314       0.01387442      -3.77648750
H        2.93364837       4.87703361       8.62546806       0.01709955       0.00157569       0.01701421      -3.69178106
N       15.98605388      15.51963568       2.64011232       0.02000019       0.01875315       0.01400658      -8.68152792
H       15.37399961      15.73934177       1.84441254       0.01199362       0.00232600       0.01894975      -3.78957981
H       16.06511472      14.54711644       2.91004897       0.01176896      -0.00359709       0.02000967      -3.69880660
Pb      13.19485960      13.11629375       6.56073326       0.00667674      -0.00796423       0.00681861      -4.66515266
I       16.49995663      12.95409179       6.37651287       0.00644366      -0.01864235      -0.01308168      -2.01814957
I       13.42082499      16.37227865       6.66165462       0.02449870      -0.00206673       0.03017213      -1.91723081
I       13.43961797      12.83655205       9.78133026       0.03473118       0.00476196       0.00275375      -1.99126263
C       16.51953307      16.44519305       9.70121964       0.00367720      -0.00518138      -0.00898351      -8.92693467
H       16.63785299      15.92903315       8.74537769       0.01703413      -0.00962544      -0.00901314      -3.43274202
N       16.42187217      15.72253279      10.80136467      -0.00571130      -0.00729690      -0.01179288      -8.76946740
H       16.51435087      14.71307615      10.79054109      -0.00369684      -0.00822541      -0.01019840      -3.73833106
H       16.16943380      16.15069131      11.68937051      -0.03640497      -0.01405824      -0.01668071      -3.64989770
N       16.46898827      17.76089809       9.71135528      -0.00047025      -0.01208366      -0.00916298      -8.58390193
H       16.46829768      18.28551035      10.59582698      -0.00798835      -0.00658738      -0.01119839      -3.78256331
H       16.55036154      18.29208094       8.84301381       0.00055703      -0.00816488      -0.01310881      -3.85325157
Pb      13.22980297      13.08909484      12.99728142      -0.00097637      -0.00277482       0.00688095      -4.67533083
I        3.36062302       6.28850205       0.27967339       0.00468121       0.00786036       0.01137083      -1.96846794
I       13.33541832      16.38622610      13.03191706       0.01665464      -0.00644991       0.01194098      -1.94564610
I       -0.25558261       6.34545589       3.26642320      -0.02465646       0.00170730       0.00474814      -2.05915469
C        3.50362449       9.72163448       3.28911021       0.01704473      -0.01533743       0.00478320      -8.90198152
H        4.40740212       9.19796049       3.61315617       0.01682262      -0.01514235       0.01240179      -3.45073329
N        2.56079707       9.96148638       4.17703402       0.00671172      -0.02229398       0.00703924      -8.67786165
H        2.65485774       9.63988778       5.13595166      -0.00202499      -0.03361115      -0.00335317      -3.75639226
H        1.78825880      10.60204354       3.97101372       0.01411883      -0.01294730       0.00511823      -3.74176004
N        3.40468648      10.07093324       2.02361395       0.02589648      -0.00785760       0.01178398      -8.63868482
H        2.53828388      10.44308489       1.63170056       0.01540278      -0.02771017      -0.00016410      -3.71472247
H        4.18803545       9.94189781       1.38324270       0.02400292      -0.00597900       0.01313069      -3.84124958
Pb      13.23440133      19.63923975      13.10071370       0.00958614      -0.00264400       0.00682261      -4.67037934
I       16.53296570      19.54258511      12.89190850       0.00374528       0.00169021      -0.01573355      -1.99268490
I       13.62720508      22.84963043      13.21787636      -0.01606558      -0.00684490       0.01045346      -1.93168943
I       13.34919000      19.48288372      16.34945664       0.00848639      -0.00570618       0.00971759      -2.00325082
C        3.39667878      16.36827847       3.26439750      -0.01771715       0.01496894       0.00589035      -8.90551809
H       15.57684277      23.55720543      16.06233882      -0.01234791       0.01623437      -0.00254284      -3.46602787
N        4.15426537      15.99139020       2.25769176       0.00115476       0.00899622       0.00585092      -8.71419363
H       17.03482264      22.92628724      14.32593101       0.00184782       0.02753523       0.00234899      -3.73630289
H        4.99494963      15.42635591       2.39291153      -0.01833154       0.00652111       0.00447569      -3.72513636
N        3.70655771      16.13806710       4.52478327      -0.02575303       0.00706974      -0.00190602      -8.71337017
H        4.60448432      15.73610069       4.79498887      -0.02082194       0.00755873       0.00874390      -3.68976982
H        3.11151082      16.46958494       5.27790115      -0.02827594       0.00044808      -0.00180383      -3.75932278
Cs       3.52881115      16.22025599       9.87447421       0.00323422      -0.01259315       0.01760781      -3.68676619
