233
Lattice="-12.957396986651146 6.351727325886291 13.017959588757243 13.11604327292129 6.668741413988977 13.017959588757243 13.195366416056363 13.17897578392661 -6.508979794378622" Properties=species:S:1:pos:R:3:forces:R:3:energies:R:1 energy=-1065.0406727650516 stress="-0.00027922660521931215 0.00031548589234866643 -0.00010136907518237581 0.00031548589234866643 -0.0010678891716204906 -0.0005739122980073414 -0.00010136907518237581 -0.0005739122980073414 -0.0008667796464455076" free_energy=-1065.0406727650516 pbc="T T T"
Pb       6.74453656      19.55335398       6.59192595      -0.00383732       0.00113617       0.01190007      -4.62874681
I        9.99265380      19.71531484       6.54474344      -0.00418189       0.04470444      -0.00013338      -2.02244937
I       -6.46103951       9.67615446      13.20781172      -0.03102813      -0.00123025       0.00589994      -2.03003043
I        6.58770961      19.46378115       9.78866527       0.00724180       0.00028595       0.00024934      -1.94562941
C       -3.11316003       9.79717618      16.30473194      -0.00240992       0.02170832       0.02175162      -8.90982204
H       -2.91931449      10.58103030      15.56709215      -0.00211533       0.01659949       0.00256663      -3.44138641
N       -3.23616428      10.13070192      17.57517416       0.00338176       0.02052513      -0.00680689      -8.68211302
H       -3.14737364      11.09183006      17.89573822       0.00529644       0.03607968       0.00735334      -3.79444720
H       -3.43942659       9.41854376      18.27998886       0.00256147       0.03085171       0.01077754      -3.72272817
N       -3.22249994       8.55211701      15.89107263      -0.00331382       0.01732307       0.02134600      -8.62402140
H        9.85493790      20.97058421      10.05018558      -0.00313140       0.02533313       0.03037189      -3.67014431
H       -3.13799723       8.28349337      14.90805811      -0.00569656       0.00709632       0.02064799      -3.85280823
Pb       0.25682205      19.52185004       6.44239006      -0.00407126       0.00583759      -0.00745667      -4.65167912
I        3.50245695      19.31368440       6.55280523      -0.00057448      -0.01418059      -0.00320555      -1.99836920
I       13.09080494       9.90131757      12.78515423      -0.01383918       0.00535033      -0.02083788      -1.95409146
I       13.40416814      13.15408355      -3.31157353       0.04635072       0.01097745      -0.01247421      -1.97978522
C        3.23721394       3.29246662       3.32294349      -0.00297192       0.01265017       0.01209930      -8.91169024
H        2.40884236       3.17405859       4.02743075      -0.00954819       0.00055922       0.02620413      -3.42957589
N        3.98721057       4.37111274       3.41242722      -0.02784806      -0.01220280       0.01632198      -8.63617839
H        3.84740102       5.03822719       4.17238892      -0.00190107      -0.00095951       0.01611090      -3.87070633
H        4.78070684       4.53063008       2.79193332      -0.00816949      -0.00371907       0.00550997      -3.67285796
N        3.42839404       2.36218439       2.41150296      -0.03647645      -0.00185414       0.01378821      -8.66803193
H       -8.75340205       8.76905250      14.76664035      -0.02975801       0.00160329       0.00596325      -3.71647441
H      -10.11252370       7.88218249      15.39525644      -0.03003607       0.00456171       0.01808507      -3.78084089
Pb      -0.01274876       6.47880028       6.50684072      -0.01164898       0.00406890      -0.00595701      -4.66136408
I        3.29428210       6.36534520       6.44358555      -0.00847034       0.00507434       0.00374714      -1.98787135
I        0.13521047       9.71581833       6.28408547       0.00256871       0.00902950      -0.03731317      -1.95323858
I       -0.10531840       6.83627406       9.77528402       0.01811789       0.02365369      -0.00549055      -2.04157574
C        3.46471617       9.80875325       9.76408049       0.01802274       0.00443278       0.01202633      -8.91331537
H        4.36259614      10.29867472       9.37813339       0.01674154      -0.00344791       0.00374152      -3.44633760
N        2.74405405       9.08288366       8.93590766       0.00868739       0.00508759      -0.00026277      -8.67785833
H        3.02225196       8.96302923       7.96690177       0.01206308       0.00838952       0.00480556      -3.75705409
H        1.91203844       8.56961115       9.24430080       0.01234519       0.01237630       0.00348085      -3.76100908
N        3.15820415       9.96958154      11.03675717       0.02774661       0.00429494       0.00441417      -8.69711864
H        2.29891202       9.59491939      11.44466915       0.01120000       0.01986024       0.00432265      -3.71504987
H        3.73180487      10.55125036      11.64080229       0.03205131      -0.00350892       0.00442165      -3.76780472
Pb      13.28171431      19.63134913       6.57777092      -0.00068101       0.00580019       0.00938951      -4.65076488
I       16.51639293      19.59987913       6.57339685      -0.00577444      -0.01563386       0.00896951      -1.97564551
I        0.30437162       9.72787063      13.38929149       0.01667724       0.00042892       0.01113478      -2.01251182
I       13.24349242      19.54224042       9.75092430       0.00978064      -0.02572462       0.00189201      -1.91286210
C        3.29104429       9.77221977      16.27152173      -0.02565092       0.00326969      -0.01322880      -8.92190624
H        2.25978292       9.41091038      16.29223783      -0.01839735      -0.00879042      -0.01621133      -3.43378852
N        3.59499561      10.77117125      15.46771062      -0.02864510      -0.00324718       0.00223218      -8.66117717
H        2.89062338      11.20522181      14.87912156      -0.01876426      -0.00327543      -0.00362013      -3.76942244
H        4.51492074      11.21908677      15.50003528      -0.02198902       0.01014164       0.01313743      -3.74626529
N        4.18021137       9.17098685      17.03401697      -0.01613092      -0.00847973       0.00625027      -8.65138161
H        5.14448628       9.49690835      17.09420485      -0.03354842       0.00156979       0.01121330      -3.66591445
H       17.10320269      21.60429784      11.16616778      -0.02884570      -0.00681285      -0.00583877      -3.86546685
Pb       0.16428780      12.92673012       6.53406000      -0.00920925       0.00210976      -0.00472701      -4.64398816
I        3.43461832      13.22058849       6.64933479      -0.00744232       0.04128586       0.00888198      -1.95284699
I        0.21323046      16.22320943       6.42657151      -0.02614425       0.00972940      -0.02319246      -2.01640862
I        0.35006740      12.86051205       9.76853637       0.02270107       0.01093868       0.00249540      -1.95001199
Pb       0.18343723      12.96596518      13.01929985      -0.00862194       0.01126371       0.00317818      -4.63665599
I        3.42861529      13.40085181      12.86628743      -0.01064465       0.02926454       0.01497614      -2.03044187
I       -0.00916803      16.20964564      12.82983413      -0.03204511       0.00103570      -0.02705310      -2.05118603
I        0.02321787      13.07739498      16.26355000       0.00365738       0.03062046      -0.00671994      -1.94364801
C        3.46119517      16.30669069      16.26271368       0.01638028      -0.00326007       0.00044184      -8.88384710
H        2.72313213      15.55546129      15.97054752      -0.00177212      -0.00896351      -0.00714416      -3.43563801
N        3.05439731      17.53648500      16.51882904       0.01353457      -0.02161267      -0.00346532      -8.67964091
H       15.03349989      11.46186282       3.42578893      -0.00602493      -0.00121130      -0.00491285      -3.83184165
H        3.69002419      18.22285668      16.92424013      -0.00540080      -0.01636277       0.02759740      -3.67647729
N        4.73161959      15.95884108      16.34059731      -0.01663929       0.02007886       0.00419156      -8.68979770
H        5.44625613      16.65581845      16.55044270      -0.00668547      -0.01185281       0.00310995      -3.68470119
H        5.04930709      15.00738415      16.16003481       0.00696789      -0.02858490       0.00682903      -3.82710500
Pb       0.26178432      12.92317318      19.47873600       0.00578532       0.00622384      -0.01307031      -4.67247269
I        3.43301692      12.83503939      19.39714568      -0.01086391      -0.00019740      -0.00932821      -1.90476581
I       13.34721418       9.89684743       6.58218931       0.02167199       0.01500694       0.02557636      -1.95884670
I        0.41262975      12.78566413      22.76302309       0.02158851      -0.00445171      -0.01031931      -1.92502785
C        3.57255217      16.31043963      22.81226366       0.02324123      -0.00617373       0.00468297      -8.93636202
H        4.54447207      16.23672294      23.30566605       0.01911087      -0.00232741       0.00703493      -3.43261895
N        3.08505619      15.24050705      22.21700847       0.02196575       0.00839160       0.00316704      -8.71759085
H        3.61173385      14.37395695      22.18282160       0.02897114      -0.00070339      -0.00055757      -3.75080285
H        2.20836754      15.27384715      21.69360583       0.02985676       0.00144699      -0.00425208      -3.71679748
N       15.89561391      11.11197255       9.82402684       0.02050125       0.00676995       0.00907274      -8.71021134
H       14.97247284      11.23871698       9.40657995       0.02795483       0.00381996       0.00626978      -3.68533329
H       16.28340315      11.91134046      10.31805479       0.02858203      -0.00083036       0.01107408      -3.79440708
Pb       6.60095816       6.57031051       0.02396462      -0.00779049      -0.00654830       0.00097514      -4.66820490
I       -3.08320134      12.82118656      12.91466803      -0.00815355      -0.03280779      -0.01509202      -1.99726358
I        6.46657301       9.84316399       0.18282406      -0.00255229       0.00062674       0.01602927      -2.07901591
I        6.64983152       6.79948007       3.26679648       0.01841839      -0.01605120       0.00749413      -1.95665624
C       10.01667451       9.86055654       3.27454669       0.02253092      -0.01002281      -0.01532297      -8.92052700
H       11.05202953       9.64467633       3.55046850       0.00926215       0.00525049       0.01125489      -3.43603888
N        9.67531615       9.77567756       2.00421567       0.02919068      -0.01103584       0.01943955      -8.67316181
H       10.36814914       9.52063766       1.30526084       0.02866296      -0.00031703       0.00720928      -3.77890566
H        8.71008345       9.90480003       1.68572923       0.01642885      -0.02547152       0.00004471      -3.75401190
N        9.16352081      10.18088300       4.22700503      -0.01568669      -0.00065586       0.02291077      -8.75126896
H        8.19950070      10.44075036       4.02266708       0.01789469      -0.01327109      -0.00072204      -3.67260583
H        9.47261595      10.30015363       5.18545914       0.00380362      -0.00793454       0.00357359      -3.73609286
Pb       6.51144954       6.54919522       6.54456608      -0.01582347      -0.00254243       0.02256140      -4.67009144
I        9.83611922       6.83046026       6.80798650      -0.01219325       0.03008085       0.01410105      -2.09407710
I        6.22684521       9.78896306       6.58058311      -0.03783655      -0.00176174       0.01638018      -1.94737637
I        6.34648065       6.50110342       9.77351526      -0.02100626      -0.01359401       0.01318221      -1.92233908
C        9.89558710       9.97081304       9.85188132      -0.02408463       0.01174007       0.01259886      -8.93001109
H        9.95865146      10.77656630      10.58842929      -0.00772647       0.00258449       0.02357489      -3.45221254
N        8.73871465       9.74967854       9.26083392       0.01854098       0.01385761       0.01509042      -8.72587877
H        7.92616417      10.32184370       9.47059312      -0.00824217       0.02251194       0.00514243      -3.76870085
H        8.62637404       9.01358438       8.56386472       0.00530086       0.02123890       0.00355640      -3.69358708
N       10.97983305       9.27030342       9.59533759       0.01598561       0.00721892       0.02229940      -8.70626635
H       10.98697773       8.53607820       8.88606101      -0.00152818       0.01585858       0.01417425      -3.71365760
H       11.83991469       9.43743871      10.11078218      -0.01033010       0.00241329       0.02762441      -3.77065857
Pb      19.77413533      19.70183209       6.44497092      -0.00802180      -0.00760162       0.00260428      -4.66894889
I       23.07615291      19.72725668       6.52301289      -0.00344398       0.00868786      -0.00710082      -1.97402079
I        6.66587558       9.81622814      12.89399483      -0.01690537      -0.00069126      -0.00110078      -1.93069318
I       19.85495272      19.60072506       9.82654071       0.02200469      -0.02227009       0.00297900      -1.99598295
C        9.91928884       9.88922559      16.34106228       0.00761746       0.01158791      -0.00499647      -8.91687763
H       -3.19248087       3.31721374       4.41163942      -0.00351484       0.00646984       0.01365732      -3.43200680
N       10.64807570      10.72560927      15.62938709      -0.02020820      -0.03030624       0.00734336      -8.62162540
H       11.21868128      11.45110082      16.06439255       0.01313285       0.01122835       0.01583971      -3.86146255
H       10.69083932      10.67028929      14.61251017       0.00541469      -0.00573481       0.01471287      -3.68186840
N        9.18421620       8.94427105      15.79238412       0.00777883       0.01328709       0.01000344      -8.64108433
H        9.14939639       8.81074615      14.78158410      -0.00313881      -0.00088103       0.01426084      -3.70015631
H        8.62084870       8.30153551      16.34694990      -0.00642348      -0.00474993       0.02154997      -3.82941320
Pb       6.66881993      13.13330704       0.03936078      -0.00303984       0.00400574       0.00328912      -4.63536191
I        9.92183379      13.20515267      -0.11600545      -0.00840291       0.01648700      -0.03467965      -1.97765856
I        6.76148459      16.34316203      -0.02738903      -0.02104501       0.00040924      -0.00147236      -1.97276572
I        6.51332885      12.93883372       3.30004790      -0.01224248      -0.00901571       0.00458594      -2.02167615
C       10.07495876      16.32452137       3.23849327       0.00600729      -0.01428501       0.00129815      -8.90890008
H       11.11246934      15.98083464       3.20833543       0.01366701      -0.02577484       0.01070353      -3.44899264
N        9.74312514      17.24866640       4.11449464       0.01922788      -0.01614204      -0.00647965      -8.63328644
H       10.41649478      17.60536708       4.78824937       0.01329083      -0.01623924       0.00337714      -3.81004835
H        8.80471779      17.64715245       4.14756314       0.01989844       0.00611753      -0.02287589      -3.69522969
N        9.20939132      15.78941274       2.40518826       0.02577306      -0.01017142      -0.00138247      -8.62599763
H        8.24813585      16.12374073       2.34235826       0.01908146      -0.00204171      -0.01443168      -3.65892400
H        9.49034323      15.08377052       1.72199817       0.02052156      -0.01363827      -0.00486897      -3.87953712
Pb       6.63282462      13.01493512       6.56230756      -0.01519271       0.00366903       0.00636535      -4.65032298
I        9.94653204      12.96823279       6.48714740      -0.00595980      -0.01570248       0.00429735      -1.96278721
I        6.74749903      16.29681863       6.59977031      -0.00126897       0.00040963      -0.00373096      -2.00402674
I        6.54913158      13.05475798       9.78871924       0.00081429      -0.00936056       0.00245586      -2.02423457
C       10.03097280      16.36418982       9.73828595       0.00662787       0.00165286       0.00174430      -8.89984995
H       10.68294056      16.91373517       9.05325483       0.01604889      -0.01068952      -0.00136090      -3.43645154
N        9.49954092      17.00984955      10.75659393       0.02286135       0.00697714      -0.00782455      -8.60467197
H        9.69720976      17.99308882      10.92217361       0.03362850      -0.00471061       0.00168414      -3.79395653
H        8.78384655      16.58546532      11.36040139       0.00498427       0.00913388      -0.00696499      -3.77361144
N        9.80998372      15.08505294       9.51205742      -0.00434779      -0.00795621      -0.01433369      -8.64747457
H        9.28638054      14.51103313      10.17267148      -0.00504443       0.00307938      -0.00434193      -3.70637454
H       10.21072916      14.60081250       8.70943467      -0.01618621       0.00091811      -0.00961032      -3.82733909
Pb       6.71569710      13.05074157      13.01346625      -0.00222879      -0.00242328      -0.00276909      -4.65175795
I        9.92031114      13.12750370      12.80741215      -0.00259978      -0.00761249      -0.00212874      -1.98047366
I        6.70825785      16.30811669      12.93181800       0.00484033      -0.00347625      -0.01401480      -1.98504957
I        6.68673974      12.79122370      16.26010876      -0.00699151      -0.01511444       0.00558529      -2.01870854
C       10.06185287      16.32990746      16.26529564       0.01621263      -0.00168644      -0.01247726      -8.91409256
H       10.84854684      15.57292776      16.20603230       0.01123188      -0.00559591       0.00472246      -3.45257974
N       10.12433420      17.36289576      15.45000209      -0.00424487      -0.02604095       0.00229019      -8.70631748
H       10.89916088      17.46354340      14.79882719       0.00462241      -0.01875680      -0.01734967      -3.79875364
H        9.40183167      18.08215722      15.45055772       0.00294066      -0.01749205      -0.00866924      -3.68037237
N        9.08968676      16.15793175      17.13633715       0.00302408      -0.01427640       0.01613271      -8.68206205
H        8.37470205      16.87069348      17.28451095       0.01336566      -0.01142226       0.00312406      -3.68887903
H        9.09723649      15.36361569      17.77445344       0.02011847      -0.00347247       0.01009016      -3.81753864
Pb       6.62633904      13.08055204      19.56735203      -0.00917130      -0.00343678       0.00512931      -4.66543491
I       -3.21739537       6.47435883       6.41194422      -0.00682200       0.01243630      -0.00341510      -1.97420835
I        6.54207230      16.34119941      19.72765896      -0.01718902       0.00167163       0.00572892      -1.97663314
I       -6.52552031       6.47327134       9.78536899       0.00531071      -0.00451532      -0.00120395      -1.99285043
C       -3.13933270       9.69837756       9.71416791      -0.00348207      -0.00846037       0.00120391      -8.91385442
H       -2.76140262       9.31711636       8.76171854      -0.01131633      -0.01755674      -0.00019505      -3.43400482
N       -2.30810522       9.77411270      10.73412227      -0.00202675      -0.00167076      -0.01085954      -8.70354847
H       -1.36140145       9.41345014      10.66452659      -0.00347223      -0.00537628      -0.00968683      -3.77247980
H       -2.55689315      10.27171838      11.58958723       0.00865007       0.02350453      -0.01495531      -3.69704302
N       -4.40409071      10.05991013       9.79174012      -0.00977116      -0.00745044      -0.00809962      -8.69652203
H       -4.82662781      10.34492061      10.67482653      -0.00600106      -0.00612676      -0.00333865      -3.67851472
H       -5.01806820      10.00529130       8.97825296      -0.00509068      -0.01098386      -0.00252485      -3.83971458
Pb       6.64109858      19.61079334      12.98372116      -0.01759159       0.00817620      -0.00116196      -4.62814620
I        9.98335971      20.02141647      12.90248027      -0.00873046       0.03179434      -0.00344684      -2.07035821
I        6.76418667      22.81697348      13.17034263      -0.01738538      -0.00382172       0.01497212      -1.90804764
I        6.74420329      19.32080863      16.32214526       0.00633325      -0.01730910       0.00493406      -2.08960607
C       10.02529088      22.89926521      16.19128839      -0.00681796      -0.00220961      -0.00559932      -8.92596826
H        9.49877546      22.68010898      15.25863924      -0.00345674      -0.01247799      -0.01712151      -3.44759369
N       10.32898768      21.89989013      16.99626596      -0.01876163       0.00931261      -0.01141162      -8.76166743
H       10.12003117      20.94057335      16.75062332      -0.01327444       0.00007428       0.00124240      -3.70299875
H       10.88546119      22.04198151      17.83898863      -0.00367499       0.01321404      -0.01114260      -3.68856361
N       10.32246658      24.15246717      16.46822946      -0.02376461       0.00121924      -0.03280438      -8.67834910
H       10.69914017      24.43515155      17.37593033      -0.03481714       0.01243413      -0.01715359      -3.71338745
H        9.86235065       5.36522350       9.30186182      -0.00664411      -0.00612678      -0.03822492      -3.79400144
Pb       6.75777183      19.64908039      19.68256673      -0.00867136       0.01096156       0.01062705      -4.67805882
I       10.02921708      19.47261238      19.69116903      -0.00864742      -0.00219314       0.01018300      -1.90374081
I       19.85927117      16.48821998       6.53963105       0.00496822       0.00158147      -0.00759230      -1.90817991
I       19.41164459      13.35714569       9.83097659      -0.00937104       0.00683505       0.00744158      -1.93420542
C        9.88572902       9.92683454      -3.30456694       0.00125195       0.00327110      -0.00754615      -8.89606787
H        9.22374973      10.34136554      -4.06948865      -0.00807662       0.00416987      -0.01302358      -3.44589593
N        9.50777361       9.98677554      -2.04163727      -0.00737233      -0.00008115      -0.01216043      -8.71792423
H        8.64332356      10.44025547      -1.76242195      -0.02306811      -0.00548692      -0.01110026      -3.78781988
H       10.13249749       9.66411482      -1.30411855      -0.01518448       0.00572027      -0.01439175      -3.66246773
N       -1.93571646      15.72690728       9.34252060      -0.01161769       0.02606059      -0.02288118      -8.63285430
H       -1.30586488      15.28238218      10.01168081      -0.00521915       0.00213906       0.00123793      -3.69890294
H       -1.63089290      15.72901434       8.36964813      -0.00098223       0.01792713      -0.00198088      -3.83517196
Pb      13.18006532      13.17272398      -0.10424470      -0.00549998       0.00703965      -0.02055064      -4.64035726
I        3.47636802      19.34992126      12.79872718      -0.00974536      -0.02166350      -0.00261070      -1.96062666
I       13.29211742      16.39546390       0.04166300      -0.01364134       0.00060636       0.01316714      -1.97632128
I       12.98901879      13.25380264       3.18214762       0.00729237      -0.00625237      -0.01932731      -2.03480830
C       16.55941232      16.47372704       3.26390842       0.02280039      -0.02635461       0.00382426      -8.91461057
H       17.55018682      16.83065678       3.55567866       0.00665404      -0.00056494       0.00031685      -3.44351519
N       16.36925747      15.17643792       3.11210824       0.00230260       0.02067929      -0.00304491      -8.73739776
H       17.13526173      14.52302115       3.25141878       0.02521482      -0.00796477      -0.00377152      -3.76854670
H       15.43982103      14.78649105       2.94071418       0.01950796      -0.00382577       0.00577530      -3.70362053
N       15.60153863      17.36017561       3.08141977      -0.00361504       0.03269553       0.00731304      -8.78217217
H       14.70165499      17.09644307       2.68212002       0.01543804       0.00283894      -0.01435111      -3.66414948
H        2.57978174       5.17182492       9.71445919       0.00651670      -0.01458366       0.01548429      -3.71323651
Pb      13.18847351      13.13390017       6.46903491      -0.00801019       0.00894590      -0.00899261      -4.66824515
I       16.44000971      13.36623981       6.57246144      -0.00731296       0.03756423      -0.01699057      -1.92073926
I       12.90721645      16.42112437       6.28042132      -0.02564053       0.00571372      -0.00062458      -1.97599617
I       13.04422119      13.30361674       9.70295065       0.02951674       0.03452385      -0.00691418      -1.96493937
C       16.50820265      16.37233234       9.77397681      -0.00434874      -0.01778041      -0.00290646      -8.92096390
H       16.52005224      15.35700768      10.17873553      -0.01442676      -0.02535493       0.00023700      -3.44291008
N       17.23506325      17.29006213      10.37686959      -0.01203409      -0.03466473      -0.00227280      -8.65483206
H       17.81861779      17.06415052      11.18094658      -0.01094254      -0.02722208       0.00494243      -3.86288494
H       17.28324433      18.24766943      10.03390249       0.00208907      -0.02804335      -0.00531914      -3.64989227
N       15.76669353      16.62904958       8.71614580       0.00021325      -0.03372389      -0.00994169      -8.65347908
H       15.79691524      17.54431565       8.25622998       0.01253727      -0.02554959      -0.01323830      -3.75420552
H       15.22299395      15.90317812       8.25870691       0.01423186      -0.02946497      -0.01659541      -3.76719694
Pb      13.20548730      13.22937509      12.92947549       0.00001161       0.00859176      -0.01674038      -4.65972108
I        3.33783047       6.53223548      -0.02112905      -0.00255007       0.02205674       0.00317617      -1.96438186
I       13.12714966      16.43254717      13.09549311      -0.02489727      -0.00103267       0.01274328      -1.92174074
I       -0.03246348       6.63299312       3.25963335       0.03073400       0.00345352      -0.00165495      -2.05954602
C        3.48945282       9.79274031       3.23559570       0.01807867       0.01518566      -0.00083899      -8.92919277
H        4.46852912      10.02140957       2.80801519       0.02148863       0.00296265       0.00945848      -3.45153068
N        2.73296066      10.79100682       3.64298797       0.01936207      -0.02172139      -0.00546958      -8.73523711
H        3.04903896      11.74995724       3.57900234       0.01906081       0.00177475       0.01082948      -3.71570164
H        1.82715601      10.63328692       4.08714553       0.01701284      -0.01089798       0.00330710      -3.71932303
N        3.11802505       8.53221745       3.31832365       0.01325488      -0.01483906      -0.01530786      -8.70251546
H        2.18707809       8.25810730       3.64114331       0.02866490      -0.00952582      -0.03070175      -3.71888020
H        3.73260193       7.79191391       2.99296900       0.03134862      -0.00091388      -0.02172998      -3.77004361
Pb      13.26937188      19.70954436      12.98133766      -0.00013764       0.00811727      -0.00454392      -4.68282371
I       16.51343557      19.67931324      12.98986022      -0.00736055      -0.01537322      -0.00384732      -1.98659801
I       13.51837743      22.91124149      13.02004575       0.00174812       0.00540222      -0.01769070      -1.89873304
I       13.18771830      19.75813990      16.24770758       0.00790505       0.00463733      -0.00065170      -1.92420784
C        3.40172685      16.30042848       3.22111495      -0.01320933      -0.00612327      -0.00090950      -8.88647646
H       15.72875788      23.54557792      15.74737417      -0.01827252      -0.00703939       0.00353116      -3.45831953
N        3.41395849      14.99084433       3.07367309      -0.01862086      -0.00218259      -0.00124941      -8.64727940
H       15.81674291      21.18566901      15.54428139      -0.01995599      -0.00473918       0.00530754      -3.79633442
H        4.19946089      14.42729363       3.40894681      -0.00317955      -0.00236878      -0.02537889      -3.73362294
N        4.30481637      16.94591343       3.92831902      -0.01046511       0.00192735      -0.01158735      -8.62499678
H        4.98399141      16.46448145       4.52527806      -0.00900473       0.00176554      -0.01343656      -3.73485690
H        4.25479883      17.95360570       4.04286244      -0.00972629       0.00344164      -0.02180815      -3.79361200
Cs       3.47100345      16.29552964       9.76882836       0.00086232      -0.00657689      -0.00303055      -3.66496296
