233
Lattice="-12.957396986651146 6.351727325886291 13.017959588757243 13.11604327292129 6.668741413988977 13.017959588757243 13.195366416056363 13.17897578392661 -6.508979794378622" Properties=species:S:1:pos:R:3:forces:R:3:energies:R:1 energy=-1065.2433585370698 stress="-0.00044893494167029253 0.00018594654211401466 0.00012181347551509492 0.00018594654211401466 -0.0006763341125826394 -0.00024012292914538067 0.00012181347551509492 -0.00024012292914538067 -0.0007024608919278062" free_energy=-1065.2433585370698 pbc="T T T"
Pb       6.66481307      19.58221119       6.47140785       0.00709789       0.00494605      -0.00044498      -4.63549879
I        9.99530984      20.08458921       6.50046332       0.00439354       0.00491815      -0.00578057      -2.04217432
I       -6.62883269       9.62357896      12.65793848      -0.00106220       0.00430765      -0.01227505      -1.99035388
I        6.51003833      19.51790803       9.73710071       0.01016838       0.00268422      -0.00078341      -1.94957676
C       -3.04182480       9.63152377      16.26571612       0.00797556      -0.01463271      -0.00615851      -8.91999326
H       -2.17835919       9.04462710      15.93897398       0.00814440      -0.01982762       0.00251135      -3.45482251
N       -4.12790937       9.61773267      15.52369508       0.01485872      -0.00350314      -0.00372825      -8.63957984
H       -4.16798851       9.06700210      14.66853688       0.01254755      -0.01221858      -0.00645924      -3.80293029
H       -4.91693283      10.23765483      15.73022610       0.01377502      -0.00478727      -0.01019155      -3.74678929
N       -2.94183097      10.31221410      17.38943126       0.01004864      -0.01152022       0.00025257      -8.68073778
H       -3.71666749      10.87102821      17.74448583       0.00982500      -0.00997731      -0.00381155      -3.68248860
H       -2.08044168      10.30408897      17.93291982       0.00422869      -0.01945748       0.00162531      -3.82734187
Pb       0.19008777      19.46013535       6.48560040       0.00555207       0.00257050       0.00386890      -4.65540548
I        3.46887626      19.45005560       6.74956046       0.00048412      -0.01054640       0.00955733      -1.99248042
I       13.11155132       9.86112873      13.09049682      -0.00331941      -0.00100413       0.00196953      -1.96637705
I       13.04653317      13.00472580      -3.23853602       0.00721044      -0.01509967      -0.00001115      -1.95531401
C        3.35909076       3.27127223       3.20006991       0.01374981       0.00405898      -0.00646508      -8.93528280
H        4.15895374       3.13606355       2.46664749       0.00493812       0.00980417      -0.01162722      -3.43081795
N        3.55277074       4.11471450       4.19181905       0.01204843      -0.00015776      -0.01158354      -8.66470313
H        4.43194922       4.61875893       4.28445233      -0.00259971       0.00301645      -0.00758982      -3.83074468
H        2.83382789       4.28058552       4.89593020       0.00001087      -0.00806321       0.00268587      -3.68542036
N        2.24354779       2.58852068       3.04541339       0.00105962      -0.01353079       0.00185551      -8.67142111
H        1.50225092       2.62504193       3.74867054       0.01916943      -0.01845587      -0.00320772      -3.71838524
H        2.12499083       1.94528413       2.26729969       0.01777777      -0.01278808      -0.00431424      -3.79949505
Pb       0.05181777       6.56955702       6.43328364       0.01396060      -0.00033323       0.00150025      -4.68249467
I        3.38128895       7.03089129       6.43613902       0.00086541       0.01254945      -0.01708745      -2.00224210
I       -0.28124312       9.77640843       6.58291478      -0.03769809       0.00162752      -0.02390995      -1.92821272
I        0.13472764       6.17339542       9.77982924       0.00134977      -0.02073950       0.00239126      -2.06771302
C        3.50229556       9.68682731       9.77808978       0.01653636      -0.02382331       0.00534916      -8.90745585
H        4.42585567       9.12419936       9.61424033       0.00853894      -0.03206866       0.00239757      -3.44839901
N        3.20861950      10.66539156       8.95070513       0.02093503      -0.01942988      -0.00142679      -8.61031060
H        3.83337808      10.91922755       8.18953404       0.02078184      -0.03696620      -0.00276261      -3.77462635
H        2.38124246      11.25612621       9.09091399       0.02726479      -0.01531490      -0.00061258      -3.78098305
N        2.72962403       9.33945189      10.78761012       0.01599809      -0.00974432       0.00927893      -8.65455790
H        1.89114363       9.86697868      11.03141193       0.01899021      -0.00251665       0.00672866      -3.67420917
H        2.97785478       8.56521946      11.40307472       0.00856889      -0.00943906       0.00976515      -3.85231372
Pb      13.30579380      19.64673261       6.61946840      -0.00746216       0.00774216      -0.00028087      -4.64732248
I       16.53413631      19.59183940       6.58026346       0.00209046      -0.00550349       0.00741356      -2.01524282
I        0.17757995       9.73995360      13.39915441       0.01479464      -0.00177852       0.01537179      -1.94303431
I       13.11614997      19.63431271       9.80451276       0.00459540      -0.02080644       0.00269183      -2.02774730
C        3.33484054       9.77145765      16.28005996      -0.01054415      -0.00455411       0.00332478      -8.91207025
H        2.47905250      10.44921602      16.32443207      -0.00019286       0.00161477       0.00950048      -3.44052077
N        3.12721943       8.47277834      16.35913836      -0.01773891       0.00156115      -0.00036456      -8.68680377
H       15.38401514      21.25741765       9.91524636      -0.00492522       0.00528780       0.00196116      -3.82448349
H       17.10880977      20.99905293       9.85157255      -0.00549560      -0.00622829      -0.00294401      -3.70304897
N        4.54479912      10.28327669      16.14952503       0.00710383      -0.00226527      -0.00433589      -8.73708372
H        5.34729327       9.67295935      16.00264592      -0.00933531      -0.00051336      -0.01506198      -3.65939515
H        4.71333197      11.28539104      16.12027736      -0.00229799      -0.00546671       0.00113007      -3.78061359
Pb       0.13143979      13.01243307       6.48186064       0.00315538      -0.00330946       0.01536699      -4.63465974
I        3.42727996      13.22946944       6.54693163       0.00056520       0.01529831       0.02933867      -2.03307708
I        0.39184909      16.23438283       6.45128535      -0.00292732      -0.00193004      -0.01612702      -1.98383038
I        0.23697528      12.66155237       9.81524747       0.00045939      -0.02577052       0.00244277      -2.06865864
Pb       0.10808722      12.94714345      13.14952081      -0.00837800      -0.00808378      -0.01056962      -4.65780393
I        3.38753920      13.11186583      13.06226315      -0.00639025       0.00757375      -0.00478610      -2.00864242
I        0.21211046      16.21851083      12.79818180      -0.02927509      -0.00203397      -0.02139195      -1.97156268
I       -0.08272664      13.08935380      16.31632058      -0.01498572       0.02027956       0.00044476      -1.93115566
C        3.46467492      16.31604592      16.16285328       0.00210478       0.00365538      -0.01987418      -8.90869336
H        3.20521555      16.78519766      15.20953307       0.00973188       0.01342691      -0.01553879      -3.44135021
N        3.31597011      15.01566202      16.29265103      -0.00456648       0.00920752      -0.02179272      -8.58712498
H        3.03923066      14.43891666      15.49907065      -0.00338130       0.01197526      -0.02436593      -3.81821403
H        3.47141381      14.53306921      17.18797484      -0.01819329       0.00561493      -0.01840435      -3.79079077
N        3.90342821      17.08948546      17.13759688       0.00836178       0.00213239      -0.00766744      -8.73135021
H        4.25614347      16.70105352      18.00991169       0.00789750      -0.00640520      -0.01778751      -3.65946368
H        4.02522392      18.08795936      17.00555541       0.00635572      -0.00046426      -0.00273122      -3.76585506
Pb       0.26205682      13.00683488      19.55193980       0.00840680       0.00316523      -0.00034906      -4.65708305
I        3.47414971      13.01846948      19.25005639       0.01232888      -0.00675754      -0.01702820      -2.02657556
I       13.55661997       9.89568371       6.66599956       0.00282005       0.00218365       0.00614905      -2.00718205
I        0.20962227      12.97257606      22.78711830       0.04177662      -0.01035106      -0.00307369      -1.91533892
C        3.50668450      16.31094590      22.78897440       0.00819779      -0.00392409      -0.00006894      -8.89853993
H        4.32956531      16.35901947      23.50954082       0.00324757      -0.00285768       0.00388375      -3.46704104
N       15.24058046      10.19965835      10.19275229      -0.00163763      -0.00731916       0.00762238      -8.67314989
H       15.03010858      10.39918526      11.16872658       0.00382230      -0.00860060      -0.00011106      -3.81000382
H       14.45923687      10.22616748       9.53829245       0.00480246       0.00080681       0.00129611      -3.67942496
N        3.77922577      16.00943924      21.53755590       0.00730076       0.00299187       0.00412593      -8.57448120
H        3.02721356      15.92385907      20.84785776       0.00637564       0.00409214       0.00035937      -3.75290566
H        4.73698539      15.87257630      21.21264741       0.00706749       0.01329201       0.00124387      -3.84585333
Pb       6.59651069       6.44626841      -0.05243272      -0.00537407       0.00541372       0.00202106      -4.66056363
I       -3.11053077      12.87114849      12.85933646      -0.00433970      -0.00107480      -0.00974419      -1.94246709
I        6.71935732       9.72471611       0.26169919      -0.00000194       0.00559277       0.00867736      -1.99754461
I        6.70126316       6.17708054       3.27953215       0.00224285      -0.00624804      -0.00509316      -2.03437395
C        9.88696980       9.91756922       3.23498349       0.00075074       0.00549953      -0.00071599      -8.92450210
H        9.57014612      10.76295454       2.61834175      -0.00434406       0.00811209      -0.00248710      -3.44934445
N        9.45516774       8.71229139       2.92229556      -0.00047411       0.00712605      -0.00258462      -8.73627596
H        8.85844959       8.56103740       2.11304464      -0.00597629       0.00819657       0.00198309      -3.79964397
H        9.77137167       7.89283563       3.43805801      -0.00247048       0.00716757       0.00226773      -3.64608444
N       10.66963195      10.15064490       4.26911990      -0.00030833       0.01287888      -0.00913324      -8.69825894
H       11.01117279       9.39080909       4.85642233       0.00017823       0.00807071       0.00022108      -3.68304947
H       11.02711797      11.08309656       4.45812571      -0.00263641       0.00771665      -0.00454744      -3.79606432
Pb       6.61573500       6.67641843       6.57317182       0.00353533       0.00358083      -0.00980851      -4.64941550
I        9.91026648       6.87983164       6.52234959       0.00186340       0.00325135      -0.01291239      -2.02725437
I        6.56206819       9.89006625       6.57529963      -0.01581479       0.01552565       0.01603891      -1.91262175
I        6.58741336       6.69067581       9.77598179       0.01222379       0.01311790      -0.00632519      -2.03026007
C        9.87467048       9.77776752       9.74989610      -0.01393083      -0.01032186       0.00604925      -8.91580256
H        9.60405641       8.77562637      10.09174682      -0.02839431      -0.01480751      -0.01392649      -3.43508792
N        9.59515447      10.80313395      10.53004229       0.00836296      -0.02007666       0.00061831      -8.71860593
H        9.06551998      10.68020999      11.38955100      -0.00951632      -0.02164705       0.00769432      -3.81578275
H        9.98700268      11.72359191      10.34615023       0.02164087      -0.02735269       0.02458920      -3.62873322
N       10.47425379       9.91213967       8.58561983      -0.00066154      -0.01985655      -0.00435021      -8.64218157
H       10.66527376      10.83216267       8.18488988      -0.00597362      -0.00445115       0.00430560      -3.72522673
H       10.64313103       9.09971580       7.99388588      -0.01752232      -0.00161396      -0.00241511      -3.83969783
Pb      19.88532506      19.81726970       6.52096876      -0.00416771       0.00552962       0.00362020      -4.66666948
I       23.04243700      19.71294020       6.50357722       0.00270966       0.00244036      -0.00670179      -1.93897251
I        6.74359255       9.86185880      12.94381541      -0.01149200       0.00962204      -0.00695590      -1.94893957
I       19.77842291      19.99470403       9.80004048       0.00161707       0.01014546       0.00370330      -2.05765433
C        9.91731306       9.80381007      16.32059636       0.00418812      -0.00925679       0.00908941      -8.92294313
H       -2.91749298       2.17559803       3.74343663       0.00547396      -0.01598697       0.00249987      -3.42739070
N       10.85920126      10.54505787      15.77412825      -0.00576789      -0.01046599       0.01600758      -8.70716657
H       -1.29445246       3.55932950       2.72469191      -0.00290506      -0.00093812       0.00777792      -3.73485641
H       10.64611784      11.40716446      15.27058331      -0.01086387      -0.00562484       0.00678790      -3.72494716
N        8.65006066      10.16717109      16.35292863       0.00092899      -0.00927542       0.01730082      -8.66586313
H        8.33686903      11.09011103      16.03811566      -0.00205367      -0.01274028       0.03062343      -3.73417280
H        7.96254306       9.58760338      16.82787731      -0.00050829      -0.02517981       0.00700856      -3.79339692
Pb       6.60209888      13.03183385       0.16163429       0.00550811       0.00465409       0.00057731      -4.66298831
I        9.90489707      13.06731439       0.17668630      -0.00341734      -0.01684493       0.00585330      -2.02676592
I        6.88011534      16.29308003       0.07304261       0.00070386       0.00210567       0.01401665      -1.94560434
I        6.70297189      13.11464231       3.30325140       0.02907048       0.00634062       0.00887213      -1.91622094
C        9.91864043      16.35501838       3.24772311      -0.00849003      -0.00380067      -0.00368971      -8.92927466
H        8.91323943      15.94732794       3.38107877      -0.00509675      -0.02391139       0.00480048      -3.43246060
N       10.63177712      15.94519777       2.21979262      -0.01002398       0.00874659       0.00385147      -8.63161008
H       10.28519531      15.21492078       1.59214524       0.00015502      -0.00277182      -0.00066271      -3.87745096
H       11.55421426      16.32685600       2.01394635      -0.01727426       0.02483197      -0.00894665      -3.66238527
N       10.36266006      17.23044753       4.12686253      -0.02522103       0.00694617      -0.01175352      -8.66634045
H       11.27873617      17.67512637       4.02095878      -0.02923969       0.01311968      -0.00070150      -3.76198040
H        9.77760924      17.54875467       4.89341658      -0.02710371      -0.00994927       0.00378591      -3.76534984
Pb       6.72035411      13.08288630       6.54328159       0.00218239       0.01781745       0.00942738      -4.64250579
I        9.98289517      13.18783521       6.66772320       0.00526909      -0.01065026       0.01887605      -2.03788893
I        7.03485103      16.37233496       6.49008589       0.02949115       0.01305556      -0.02906042      -1.99627524
I        6.34840916      13.25367041       9.76410329      -0.00628907       0.02332543       0.00376800      -1.95214115
C       10.00025335      16.41319190       9.84263895       0.00372202       0.00587458       0.01127026      -8.91254929
H        9.99082400      16.98701383      10.77254399       0.00385463       0.01186876       0.01028317      -3.44081271
N       10.08955127      17.06528841       8.69886798       0.00399360       0.00671132       0.00892464      -8.76364948
H       10.17322070      18.07617267       8.65821473       0.00330345       0.00470420       0.00793636      -3.76385350
H       10.08166573      16.56658372       7.81261876      -0.00071845       0.00478523       0.01025727      -3.62161123
N        9.91125922      15.09929192       9.89983948       0.00287354       0.01108419       0.01713510      -8.62767473
H        9.96880415      14.52756886       9.05117448      -0.00410094       0.00476511       0.01427492      -3.75016579
H        9.88245611      14.61114840      10.79494516      -0.00443215       0.01187883       0.01466664      -3.84040945
Pb       6.57729245      13.13895030      12.95544423       0.00122422       0.01632974       0.00907406      -4.63260207
I        9.94248475      13.18542653      13.12962409      -0.00626869      -0.00812753      -0.00165540      -2.06440978
I        6.53109224      16.36273125      12.83399849       0.00883976       0.00684121       0.01116844      -1.99048657
I        6.78571368      13.34092078      16.24178427       0.01687971      -0.01102392       0.00007187      -1.97444809
C       10.09839500      16.39667118      16.27476739       0.01852622       0.00381051       0.00088757      -8.92548728
H       11.13109086      16.06132955      16.39994255       0.01327471      -0.01337487       0.00026622      -3.44916158
N        9.50857364      17.00284487      17.28448847       0.01610630       0.01199775      -0.00264834      -8.74326549
H       10.00262467      17.16306644      18.15695829       0.02909357      -0.00961688       0.00815790      -3.75908573
H        8.55209544      17.34954495      17.21350267       0.03315657       0.01439114       0.00502189      -3.68425912
N        9.50500304      16.18402413      15.11790815       0.02918134       0.00884109      -0.00742790      -8.67680878
H        8.52395161      16.41178773      14.95470017       0.00953049       0.02149884       0.00053407      -3.67309906
H        9.96863524      15.65395137      14.38330425       0.00422784       0.01063532       0.00670708      -3.80364249
Pb       6.83939794      13.03693927      19.52850364      -0.00771068       0.00776669      -0.00562131      -4.65759482
I       -3.12881763       6.44892687       6.56002687       0.00545969      -0.00600305       0.01114472      -1.88955190
I        6.84576224      16.37347209      19.66890347       0.00213818       0.00578876      -0.00080447      -2.03888464
I       -6.53427232       6.29921158       9.72106479      -0.00117090      -0.01934856       0.00326601      -1.93774355
C       -3.14895006       9.67100333       9.78968899      -0.00830885      -0.01403071       0.00308621      -8.93436812
H       -3.86059441       8.84381055       9.84337812      -0.00451852      -0.00754221       0.01196034      -3.43220375
N       -3.52821832      10.78872251       9.20113959      -0.00629333      -0.01157433      -0.00501086      -8.72777118
H       -4.45246090      10.87949699       8.78971238      -0.00693707      -0.01712789       0.00234184      -3.79543457
H       -2.87475697      11.55545157       9.05155949      -0.00735929      -0.01210380      -0.00694817      -3.65923958
N       -1.95156918       9.51292446      10.31616910       0.00369502      -0.00136992      -0.00063681      -8.70236949
H       -1.26926153      10.27394718      10.31352284      -0.00301603      -0.01435889      -0.00596032      -3.71864230
H       -1.69350872       8.64996494      10.78524868      -0.00431827      -0.00962987       0.00592674      -3.77751018
Pb       6.73070264      19.62395060      12.92139196       0.00085172       0.01127909       0.00332947      -4.64167709
I        9.98854551      19.67304227      12.95454025      -0.00490627       0.02053309       0.00397924      -1.92906649
I        6.73955058      22.88808268      12.93339265      -0.00389422       0.00942874       0.02533803      -1.93568014
I        6.64582376      19.56898867      16.26312586       0.01694555      -0.01806717      -0.00285756      -2.00154705
C       10.09042931      22.92231410      16.40693088       0.01822976       0.01078574       0.03699976      -8.93320909
H        9.95111733      23.12959322      17.47092095       0.00147127       0.00917630       0.01997329      -3.44878923
N        9.03001658      22.62252226      15.68711127      -0.01570176      -0.00751832       0.01265439      -8.77106840
H        8.11195789      22.56553948      16.11520526       0.01121857      -0.00554680       0.02352574      -3.74031012
H        9.08434096      22.41000330      14.69164274       0.00807691      -0.01728540       0.03002127      -3.65776980
N       11.30845635      22.98625142      15.90737972      -0.00214880       0.00793930       0.01390400      -8.74134975
H       11.50931166      22.81432558      14.92070662       0.00418373       0.00384321       0.02691187      -3.69364725
H       12.09395769      23.25904393      16.49042000       0.00530614       0.00907741       0.02655389      -3.74623042
Pb       6.74586393      19.75153835      19.49370525       0.00587867       0.00566676      -0.00416604      -4.65464981
I       10.07049145      20.01035613      19.58535243       0.00238446       0.01267481      -0.00064973      -1.99627762
I       19.96881416      16.54698188       6.19585788      -0.02351759       0.01171956      -0.03598214      -1.97910366
I       19.50903193      13.53810595       9.76335949       0.00362748       0.03844106      -0.00004196      -2.00071886
C        9.83456639       9.91925506      -3.37730827      -0.00717721      -0.00348637      -0.02596403      -8.92310231
H        9.55061562      10.17166436      -4.40233564      -0.01483563       0.00134526      -0.02067554      -3.43775665
N       -2.47865393      15.14287083       9.85615179      -0.00955772       0.01095994      -0.01782234      -8.66265886
H       -2.27494605      14.50954115       9.08680781      -0.01821244      -0.00097199      -0.02241438      -3.81516415
H       -2.22825433      14.83417012      10.79614066      -0.01901015      -0.00025895      -0.01739109      -3.69934339
N        9.51520941      10.75764579      -2.41257772      -0.00776228       0.01061488      -0.01356383      -8.72763934
H        9.85024318      10.63031247      -1.45937374      -0.00127254       0.00820646      -0.02421435      -3.63505319
H        8.99579251      11.61015008      -2.60362660      -0.01432798      -0.00179568      -0.01959736      -3.80062302
Pb      13.22527035      13.05350240      -0.01972991      -0.00727041      -0.00173328      -0.00102292      -4.63571920
I        3.45200336      19.29391294      12.98759598      -0.00172512      -0.01258270      -0.00214857      -1.97761235
I       13.50680798      16.44994844      -0.26463711      -0.00390064      -0.00162478      -0.01569069      -2.02308629
I       13.15747029      12.95693120       3.29906271       0.02383143      -0.01665616      -0.00012822      -1.96552295
C       16.55753691      16.46829989       3.25336236       0.01085304      -0.00367997      -0.00030575      -8.91681736
H       17.46315392      15.86336551       3.34893636       0.00337574      -0.00448312      -0.00440812      -3.44908253
N       15.38715146      15.85839372       3.25309813       0.00212552       0.01149262       0.00241452      -8.74247983
H       15.29001571      14.85123601       3.35145011      -0.00075166       0.00576732       0.00718823      -3.77235959
H       14.52733945      16.39998443       3.19570923       0.00881198       0.01112683       0.00566934      -3.63504922
N       16.66964937      17.77493642       3.12888993       0.00846502       0.00299150      -0.00208234      -8.62755153
H        2.63733115       5.18645946       9.59627664       0.02232195       0.00281918       0.00631715      -3.74603075
H        4.38082972       5.06394149       9.66684328       0.02172873      -0.00522609      -0.00242027      -3.83704821
Pb      13.32894486      13.24383347       6.57935234      -0.00227134      -0.01034213       0.00216919      -4.67164603
I       16.50575244      13.45615705       6.55921668       0.00559137       0.02701610      -0.01776125      -1.92722635
I       13.23817835      16.42895491       6.60573747      -0.02603858       0.00086613       0.01139811      -1.91170579
I       13.03167490      13.09230633       9.78227743       0.00019454      -0.00897136       0.00321230      -1.90257217
C       16.44219592      16.55427319       9.78158185      -0.00807235       0.01069444       0.00750883      -8.93566344
H       15.54679537      17.18123076       9.73652494      -0.00413455       0.02971765       0.00763676      -3.43747501
N       16.61969964      15.79168731      10.84022229      -0.02736280       0.01160548      -0.00620976      -8.66908462
H       15.94351292      15.78793955      11.60069492      -0.02243881       0.00922500      -0.00258117      -3.79542051
H       17.40304611      15.13778639      10.89605733      -0.02467197      -0.00402706      -0.00540050      -3.72015077
N       17.29475634      16.60846762       8.77907570      -0.01169691       0.01337182       0.00404928      -8.66935241
H       18.11224920      15.99885866       8.74408893      -0.01868194      -0.00215155       0.00061168      -3.69208970
H       17.13097414      17.22539200       7.98501303      -0.00289118       0.01519089       0.00756263      -3.81958649
Pb      13.29205290      13.15459363      13.03301398      -0.01017062      -0.00772302       0.00092058      -4.66735899
I        3.33257864       6.24891243       0.10003428       0.00028844       0.00052481      -0.00073584      -1.92487040
I       13.38724873      16.38112960      12.93852030      -0.01647171      -0.00317961      -0.00718714      -1.97074621
I        0.04299403       6.72135794       3.25794588      -0.00090536       0.00869444      -0.00091268      -1.91883944
C        3.39070781       9.89822240       3.18747616       0.00954608       0.00127615      -0.00786471      -8.92009090
H        3.29258388      10.63235201       2.38085686       0.00632539       0.01530006      -0.00791065      -3.45468700
N        4.35623959       9.00766297       3.10133484      -0.00118582       0.02874678      -0.02081468      -8.64499025
H        5.01451859       9.02431873       2.32211384       0.00242129       0.01534264       0.00539895      -3.84309546
H        4.47884390       8.28917252       3.81430773      -0.00317309      -0.00377283       0.00360317      -3.68601066
N        2.54394205       9.95451176       4.19192896      -0.01446495       0.00893683      -0.00818014      -8.64209360
H        2.58507382       9.27728070       4.95809436      -0.01136563       0.00519109      -0.01457664      -3.73169929
H        1.79035433      10.64001312       4.19982750      -0.00575540       0.00462680      -0.01952412      -3.81824744
Pb      13.26225823      19.57857020      13.07495101      -0.00673344       0.00681443       0.00218930      -4.66417054
I       16.51838354      19.49540247      13.14543630      -0.00015869      -0.00209221       0.01159345      -1.93241236
I       13.48095659      22.91146727      12.90366942      -0.00056125      -0.00003168       0.00919484      -2.04274409
I       13.27057712      19.47608188      16.31686553       0.00416723      -0.00362275       0.00306067      -1.96763947
C        3.38984771      16.30493195       3.24395468      -0.01699006      -0.00148213       0.00046825      -8.92072258
H       15.42619412      22.80748462      16.26170491      -0.01655297      -0.01178035      -0.00387075      -3.42719622
N       17.05322594      23.56534151      15.21999256      -0.02313084       0.00612352      -0.00709902      -8.66911616
H        3.30040416      10.70071291      20.93998858      -0.02297864      -0.01407834      -0.00506162      -3.78071152
H        4.93630275      17.10186801       2.16480673      -0.02191897       0.00402527      -0.00723476      -3.71529442
N        4.08608501      15.91419576       4.29044887      -0.02095334       0.00716723       0.00129540      -8.61990407
H        5.09755719      16.03444531       4.34785537      -0.01264665       0.02037803      -0.00119074      -3.68172247
H        3.65332743      15.38146555       5.04681374      -0.00797259       0.00734506      -0.00241533      -3.85298127
Cs       3.50783846      16.40593658       9.79500156      -0.00407916       0.00916175       0.00505943      -3.64655850
