233
Lattice="-12.957396986651146 6.351727325886291 13.017959588757243 13.11604327292129 6.668741413988977 13.017959588757243 13.195366416056363 13.17897578392661 -6.508979794378622" Properties=species:S:1:pos:R:3:forces:R:3:energies:R:1 energy=-1064.7493796182484 stress="-0.0008372268569301113 0.0003908802795123172 0.00023139874919858399 0.0003908802795123172 -0.0011200604202578608 0.0006726759062437776 0.00023139874919858399 0.0006726759062437776 -0.0012567933627540629" free_energy=-1064.7493796182484 pbc="T T T"
Pb       6.68925796      19.50982854       6.45063425      -0.02573007      -0.02896862      -0.01526404      -4.63816251
I        9.99539088      19.56421515       6.37837613      -0.00761354      -0.01951515      -0.01225038      -2.01733517
I       -6.26125734       9.58012912      13.05584336      -0.00230375      -0.01792328       0.00615747      -1.97269482
I        6.55282081      19.51893196       9.71657938       0.03018972      -0.03269523      -0.00830425      -1.98604570
C       -3.17226520       9.72842691      16.27086770      -0.00885785       0.00768120       0.00874365      -8.92848626
H       -3.87761168      10.52622296      16.02453565      -0.01660740       0.00269577       0.01253911      -3.43325652
N       -3.41038811       8.51159751      15.82484691      -0.01229934       0.00029703      -0.00005182      -8.71077274
H       -4.24101594       8.29889433      15.28034185      -0.01777896       0.00877311      -0.01327140      -3.77777871
H       10.45597583      20.93806333       9.47831954      -0.02045620       0.00682779      -0.01159012      -3.69330133
N       -2.11492641      10.02226295      17.00009631      -0.01566213      -0.01654810      -0.01011415      -8.66409847
H       -1.41016459       9.31911582      17.22008439      -0.01313692      -0.00143376      -0.00554553      -3.68959293
H       -1.95795473      10.96793951      17.33783232      -0.01607365       0.00346544       0.01984160      -3.83160468
Pb       0.24567523      19.34860021       6.56489457       0.00539795      -0.03024005       0.00436246      -4.63678444
I        3.47251527      19.28200509       6.58266764      -0.00525115      -0.01937629       0.02771966      -1.96376921
I       13.12656823       9.89232851      13.34458938       0.00089532      -0.00821710       0.02076498      -2.10341409
I       13.08844369      13.07756869      -3.26491091       0.01924588      -0.03450983       0.00667829      -1.93427454
C        3.38407881       3.28718783       3.24172544       0.03261758      -0.01171424      -0.01947176      -8.91150736
H        4.23408742       2.90233337       3.81203497       0.02182256       0.00524725      -0.00290389      -3.43437273
N        2.48670547       4.02102681       3.86799208       0.00408443       0.00039085       0.00247137      -8.64390864
H        2.60307709       4.27356526       4.84549799       0.02446243       0.00106894      -0.00882275      -3.81447973
H        1.70564697       4.46370990       3.38118403       0.03260994       0.00200982      -0.00750247      -3.71109897
N        3.28955138       2.98527449       1.96270508       0.01849229       0.00934654       0.00892242      -8.64659697
H        2.47814482       3.27276059       1.40951442       0.01754760      -0.02463599       0.00081481      -3.75374165
H       -8.95252961       8.79286389      14.50806593       0.03376404      -0.01227736      -0.00575732      -3.77495636
Pb       0.09664719       6.53625531       6.45561638      -0.00919246       0.00841703       0.00317985      -4.66386486
I        3.37522175       6.48402175       6.48174058      -0.00377416       0.01488660       0.00076472      -1.97055735
I        0.27999310       9.72750019       6.41538411      -0.01295697      -0.01037569      -0.01122969      -1.94518739
I        0.02022545       6.38926107       9.74873707       0.03510625      -0.01550755      -0.00479483      -2.00177586
C        3.37737344       9.87658327       9.76613250      -0.00951046       0.01890677       0.00991069      -8.93430200
H        2.92972505      10.87329633       9.78788890      -0.01714672       0.01758056       0.00523831      -3.43882113
N        3.89722714       9.44435076       8.63542078      -0.00397309       0.01959909       0.00799354      -8.71755866
H        3.88251543      10.02337536       7.80274737      -0.00133877       0.04102699      -0.00041763      -3.75250039
H        4.30489802       8.51203743       8.55649346      -0.00463080       0.03646676      -0.00443611      -3.71319132
N        3.37569000       9.16147232      10.87169196       0.00329242       0.01847352      -0.01316084      -8.71778336
H        3.80670120       8.23821895      10.92063898       0.00041266       0.02480772      -0.00044123      -3.68135337
H        2.92609921       9.50232642      11.71629896      -0.02430094       0.01479845       0.00667433      -3.77910717
Pb      13.31177882      19.66048366       6.52082627       0.00262316       0.02278012      -0.00774868      -4.64853398
I       16.53298072      19.54896801       6.63721248      -0.00992500       0.00402406       0.00565709      -1.95947196
I        0.27133683       9.71953394      13.09054275       0.00044823       0.00717709       0.01710337      -1.95888080
I       13.10872440      19.80938950       9.78580187       0.01590382       0.02576949       0.00722643      -2.00348321
C        3.39173562       9.83093921      16.19557097      -0.00009309       0.00657535      -0.02900291      -8.91986590
H        3.31265206       9.76850092      15.10847432      -0.00516794      -0.00626840      -0.02320515      -3.42694750
N        2.39324886      10.36224406      16.86931057      -0.01233269       0.00841535      -0.02914460      -8.63845664
H        1.58831324      10.76665140      16.39735518      -0.00509924      -0.00053541      -0.02775853      -3.82329622
H        2.41991715      10.45338497      17.88439505      -0.00997315       0.00375311      -0.02774350      -3.70481320
N        4.47630304       9.36876710      16.77965326       0.01129262       0.02759769      -0.02799373      -8.60710596
H        4.63190844       9.43568623      17.78839354       0.00757472       0.03051533      -0.02925432      -3.72473070
H        5.20852349       8.90782298      16.24210180      -0.00362745       0.00560738      -0.02747268      -3.82678551
Pb       0.16489763      12.92930810       6.54044634      -0.00235012      -0.00353129       0.01737331      -4.63627654
I        3.42723013      12.88197692       6.60266952      -0.00125196      -0.02581208       0.00960021      -2.07785338
I        0.35753168      16.20127005       6.71206675      -0.00997431       0.00274854       0.03066982      -1.96328689
I        0.12047281      12.98661828       9.76687753       0.03768638      -0.01937522       0.00081119      -2.00715450
Pb       0.16994418      12.91686089      12.98744141      -0.00703135      -0.02074942      -0.00775620      -4.63411160
I        3.39201413      12.93230530      12.87783602      -0.00816029      -0.01251852      -0.01628972      -1.93849576
I        0.51753117      16.25784083      12.97077300       0.02595343       0.00910558      -0.00097065      -2.05034172
I       -0.07311316      12.97838348      16.25708664      -0.00894932       0.00468777       0.00799403      -2.06532296
C        3.49895240      16.31072055      16.33172484       0.01817731      -0.01000715       0.04090223      -8.91058931
H        4.13656260      15.91277156      17.12604337       0.00295900       0.02124787       0.01803097      -3.43418803
N        2.47611639      15.58412053      15.93447129       0.00387309       0.00581058       0.01335171      -8.61467370
H        2.28294088      14.67779846      16.35177035       0.02388301      -0.00135166       0.02918586      -3.77607404
H        1.88725146      15.86606428      15.13857784       0.03458645      -0.02065061       0.00883376      -3.79210289
N        3.77898776      17.49697901      15.83140863      -0.00532962       0.03631170      -0.00411313      -8.63095021
H        3.27304460      17.88333532      15.03072286       0.02552186      -0.01991011       0.00778950      -3.70194269
H        4.58799387      18.03375768      16.14863874       0.01876828      -0.00190725      -0.00051224      -3.84083011
Pb       0.16134877      13.06785805      19.61496595      -0.00835426       0.01684987       0.01486999      -4.64033961
I        3.39380705      13.16177377      19.19833529      -0.00113143       0.02047804      -0.04293491      -1.97075748
I       13.30099033       9.86645488       6.69451865      -0.01061388      -0.00443265       0.02678684      -1.97569022
I        0.13501871      13.02472410      22.78401991       0.03939822      -0.00446512      -0.00297707      -1.94594878
C        3.51137990      16.32153067      22.75406060      -0.00396358       0.00859967       0.01601432      -8.91424085
H        4.35017691      16.72193930      23.33038803       0.00266103       0.00715521      -0.00099956      -3.43717442
N        3.68896542      16.04406985      21.48131154       0.00992797       0.00223910      -0.01593445      -8.59253723
H        4.59418849      16.18690874      21.02564509       0.00099048       0.00119184       0.00278858      -3.87617521
H        2.91090033      15.75339392      20.88524962       0.00413354       0.01786043       0.00162418      -3.74005648
N       15.32058689       9.77302867      10.35593616       0.01365469       0.01211813       0.00132483      -8.70257385
H       14.52527892       9.35903391       9.87139497       0.00898889      -0.01925962       0.00776714      -3.67315711
H       15.17934766      10.05650215      11.32069950       0.00801790       0.01189565       0.00137281      -3.78888782
Pb       6.63968990       6.51565508      -0.06696478       0.00077576       0.00266610      -0.01963975      -4.67154326
I       -3.10784847      12.79883268      12.99304373      -0.00798691      -0.02126128      -0.01703686      -1.91925388
I        6.72563548       9.79761436       0.07534716      -0.01466136       0.01425256       0.01298956      -1.90153161
I        6.40333580       6.65544071       3.23766651      -0.00577426       0.01260415      -0.00194080      -2.00685874
C        9.92787850       9.84577287       3.26079468      -0.02560006       0.00808996      -0.00966799      -8.92413940
H        9.38291549       8.89924825       3.29007746       0.00672498      -0.01498849       0.00343572      -3.43031401
N       11.20569788       9.86013843       3.57252663       0.02166328      -0.01404765       0.00262352      -8.60177344
H       11.70287045       8.99493089       3.78288002       0.00126169       0.00321878      -0.01048126      -3.84876780
H       11.74464135      10.73242013       3.57894303      -0.00414621      -0.00341146      -0.00580491      -3.75969838
N        9.26787611      10.93983289       2.92848311       0.01519753      -0.03404298       0.01281101      -8.73933814
H        9.75574978      11.82491917       2.81367989      -0.00521764      -0.01357290      -0.02168654      -3.63245357
H        8.28770332      10.91321636       2.66508968      -0.01785619      -0.01931410       0.00089499      -3.78609004
Pb       6.63916842       6.49654671       6.42837645       0.00595566      -0.01384750       0.00007558      -4.66403801
I        9.88428097       6.58344251       6.41942601      -0.00278196       0.00645125      -0.01378631      -1.98125371
I        6.90561598       9.82329121       6.34558683       0.02149940      -0.00662009      -0.03638371      -1.96761430
I        6.40625295       6.64566637       9.74545892       0.00003778       0.01935937       0.00963733      -2.02854688
C        9.91556190       9.91354326       9.78718847      -0.01233728       0.02264189      -0.01036401      -8.89940078
H       10.51828293      10.66565135       9.26936012      -0.01135363       0.00498727       0.00298356      -3.44081362
N       10.46590367       9.23677772      10.77204708       0.02716235       0.00927228       0.02843367      -8.63456064
H       11.42577570       9.40620436      11.05759990       0.00018008       0.02589523      -0.00990726      -3.79522430
H        9.96959033       8.49645641      11.28035592       0.02403515       0.01095925       0.00610029      -3.74748872
N        8.66585666       9.73572973       9.40790788      -0.00610465       0.00191046       0.02608567      -8.62494630
H        8.08187459       8.99903930       9.80741211       0.01002499      -0.00687244       0.00978681      -3.70681463
H        8.28002408      10.21970325       8.59749037      -0.00543146      -0.01035061       0.00088119      -3.82513812
Pb      19.79329170      19.74904389       6.45281696      -0.01571602       0.00950394      -0.00796815      -4.66578985
I       23.02556537      19.63612243       6.47542251      -0.00441609      -0.00757656      -0.02599471      -1.98918176
I        6.73137339       9.78233781      13.08850162      -0.01215001       0.00025489       0.01574301      -1.90900498
I       19.78425602      19.82369716       9.76335995       0.04110114       0.00791719      -0.00283800      -2.03882344
C        9.90543111       9.82307143      16.24025800      -0.02569927      -0.01631903       0.00439387      -8.93319604
H       10.02829471       8.89970856      15.66954078      -0.00574171      -0.00498473      -0.01302328      -3.43092998
N       10.84822562      10.73760013      16.17039725       0.00140425      -0.00362619       0.00429035      -8.67515451
H       -1.45631896       3.93472549       2.55210890      -0.01338960      -0.00118866      -0.00190741      -3.84645965
H       -2.30682600       4.93337607       3.69105426      -0.00911942      -0.02179230       0.01812213      -3.66204796
N        8.81789834       9.97139153      16.97147911       0.00866204      -0.01019957      -0.01285177      -8.73187850
H        8.65980543      10.81114034      17.52631331      -0.00831834      -0.02237378       0.00212400      -3.66499536
H        8.10799249       9.24707030      17.00987832      -0.00676890      -0.03631245       0.00506150      -3.77890959
Pb       6.59723101      13.01145732       0.07438783      -0.01757685      -0.01297186       0.01236731      -4.66286875
I        9.94128148      13.09748941      -0.03083864       0.00119637       0.00686465       0.00839269      -1.99196041
I        6.59194987      16.34613636       0.25678298      -0.04345023       0.00123298      -0.00631389      -1.96284055
I        6.30858940      13.13732859       3.26839012      -0.00396094      -0.00015595      -0.00185913      -1.95115493
C        9.97724489      16.44855402       3.29726287      -0.02837410      -0.00183866       0.01612082      -8.90983812
H        9.62868692      17.36741437       3.77396708      -0.00648097       0.01151385       0.02279268      -3.44558869
N       11.18370128      16.42826276       2.77276378       0.00446325       0.02484913       0.00793539      -8.64699609
H       11.77481782      17.25950361       2.78350806      -0.01208056       0.01827993       0.01987132      -3.84951646
H       11.58463903      15.57798635       2.37561652       0.00300995       0.02040625       0.02895166      -3.70651188
N        9.17293733      15.40200884       3.28060770       0.01008434       0.03171483       0.00183501      -8.74371487
H        9.38986527      14.58432681       2.71316766      -0.01712715       0.02386133      -0.02020868      -3.65308139
H        8.25451859      15.43350103       3.71283279      -0.01238554       0.00655578       0.01919478      -3.76815334
Pb       6.76030178      13.07490628       6.54807522       0.00280322       0.00526477      -0.00387044      -4.63717339
I        9.96753327      13.04968555       6.63842626      -0.00231752       0.00473559       0.03119442      -1.94574356
I        6.70019975      16.28460219       6.46077389      -0.02949428      -0.02142429      -0.02351482      -1.97786017
I        6.39687534      13.20208704       9.73405354       0.00593414       0.00657075      -0.00119340      -1.95706260
C        9.95273733      16.37049229       9.82031855      -0.02233404      -0.01564179       0.04021210      -8.89619171
H        9.44473303      16.89312169      10.63639696      -0.00933148      -0.01637026       0.01944874      -3.43746369
N       10.28275226      17.05861843       8.74849547       0.00306503       0.01332708       0.00710590      -8.61047472
H       10.06631728      18.04728299       8.66270110      -0.03068067      -0.01619316       0.02381634      -3.76841884
H       10.87000493      16.66546051       8.00603780       0.00324677       0.00725441       0.03700891      -3.76080080
N       10.20454813      15.08472117       9.95104391      -0.02746875      -0.01843756       0.00417712      -8.62181667
H       10.62397799      14.54063477       9.19586302      -0.02657604      -0.00662624       0.00907384      -3.70901620
H        9.96958206      14.57833504      10.80725781       0.00905159      -0.00833695       0.02538205      -3.86533551
Pb       6.62194004      13.01267788      13.02188488      -0.00929271      -0.01046850      -0.01078421      -4.66081161
I        9.90159103      13.12510643      13.02192830       0.00114686       0.00846067       0.01869137      -1.96183785
I        6.82445809      16.30258552      12.99619020      -0.01101575       0.00466782       0.00014799      -1.99806219
I        6.50119457      13.11082333      16.24466037       0.02066685      -0.00605140       0.00211783      -1.93206765
C       10.00939922      16.40071817      16.25376867       0.00035610      -0.00121118       0.00353811      -8.90683075
H       10.76503158      16.77380643      16.95068714       0.00120873       0.00754069      -0.00872366      -3.43796632
N       10.23035773      16.51120041      14.95874123       0.00565760      -0.00311714      -0.01486589      -8.70259349
H       11.08769907      16.91755587      14.59273333      -0.00354614      -0.00468073      -0.00839084      -3.80312082
H        9.53707436      16.19878491      14.27807788      -0.00540964       0.00623387      -0.00159996      -3.68776731
N        8.91303641      15.85728161      16.74176321       0.01098139      -0.00383475      -0.00253868      -8.65071184
H        8.21163433      15.42011441      16.14151246       0.00907958      -0.01204294       0.00549080      -3.69424352
H        8.74346670      15.80060455      17.74339711       0.00639656       0.01469470       0.00427934      -3.81982745
Pb       6.63439377      13.04499350      19.54540663      -0.00794511       0.00761190      -0.00208670      -4.65928638
I       -3.17897887       6.45220946       6.49982388      -0.00921841       0.01471429      -0.00077215      -2.00931696
I        6.80749170      16.34722069      19.67588372       0.01075787       0.00136557       0.01809807      -2.03376421
I       -6.71711736       6.30626345       9.72554256      -0.02314622      -0.02747795      -0.00900252      -1.92912978
C       -3.14388850       9.72678875       9.77087691      -0.00791769       0.00371546      -0.00277275      -8.89577726
H       -3.48271543      10.47468232      10.49442773      -0.00577766      -0.00468221      -0.00255656      -3.44426945
N       -3.28049919       8.45015483      10.06614881      -0.01672486      -0.00935174      -0.00305967      -8.66277695
H       -3.64308002       8.13970561      10.96713593       0.00473428      -0.00371762      -0.00545928      -3.82697504
H       -2.93674173       7.72575226       9.43713309      -0.00818150       0.00106756      -0.00848980      -3.66339541
N       -2.61399200      10.13344175       8.63703897      -0.00176760       0.00537197      -0.00292257      -8.63288885
H       -2.25750422       9.47450669       7.94569315      -0.00009621       0.00501522      -0.00127820      -3.67578264
H       -2.57344017      11.12009864       8.38267100      -0.01533880       0.00250706       0.00143091      -3.84698530
Pb       6.81293398      19.57151374      12.98098510       0.00142435       0.01715747      -0.00682583      -4.64152529
I       10.02480589      19.59036282      12.86158491      -0.00520963       0.00591816      -0.04039601      -1.90555042
I        6.85711609      22.83747667      13.01252801      -0.02817730       0.00652923      -0.01338408      -1.94682936
I        6.72207788      19.71042352      16.26627899       0.02065846       0.00132742      -0.00690368      -1.96648739
C        9.98964454      22.94850355      16.28625925      -0.03627405       0.02236446      -0.00597561      -8.92923178
H        8.98789070      23.37217411      16.39157411      -0.02203249       0.02528993       0.00776748      -3.43058755
N       10.53171003      22.34555110      17.32514026      -0.01283548       0.01933324       0.00668051      -8.70120710
H       10.02754355      22.25714922      18.20189949      -0.02610044       0.02730981       0.00728315      -3.75496499
H       11.41920830      21.84602452      17.24970121      -0.04545013       0.00308508      -0.00524749      -3.71326515
N       10.60353952      23.06147930      15.12697979      -0.03513372      -0.01325350       0.00038834      -8.65110993
H       11.55350641      22.71298292      14.97529883      -0.03698936       0.01935221      -0.00097145      -3.72415393
H       10.19650476      23.59563963      14.36340737      -0.04252544       0.01653785      -0.00392207      -3.79979815
Pb       6.73844504      19.62610824      19.55228891      -0.00351800       0.00367275       0.00534050      -4.67055166
I       10.01715870      19.64337720      19.57299272       0.01316546       0.03160455       0.03361229      -2.00821907
I       19.91382067      16.49683808       6.53664914       0.00406747       0.00375141       0.00790520      -1.98109990
I       19.53923048      13.27671484       9.76956886       0.02575791       0.00456761      -0.01357382      -1.91817498
C        9.91701959       9.85868206      -3.28098989      -0.02411889       0.01086409      -0.02793701      -8.91850636
H       -3.33084949      15.43670897       9.02125723       0.01823136      -0.00925438      -0.01990179      -3.42910745
N       -2.16306111      15.91106971      10.67045887       0.01004869      -0.03502019       0.02367255      -8.66230407
H       -1.70564003      15.00188909      10.68629999      -0.00473339      -0.00820140      -0.01150828      -3.82782595
H       11.11663121      10.24803765      -1.66747651      -0.00072964      -0.02176042      -0.01276482      -3.66621862
N        9.36335827      11.04961678      -3.38497102       0.01770275      -0.04353725       0.00599403      -8.68332186
H        9.55128838      11.78708294      -2.70537524      -0.01398255      -0.01877929       0.00303668      -3.69117792
H       21.82249089      17.92887495       8.88849413       0.00429245      -0.00568699      -0.02707904      -3.79123305
Pb      13.23088030      13.19581695      -0.08388769      -0.00262782       0.00415334      -0.00903708      -4.65510426
I        3.49168659      19.51457936      12.74370185      -0.00614899       0.00175225      -0.01022674      -1.99914269
I       13.16315509      16.41246780      -0.17545541      -0.00634470      -0.01205283      -0.00496280      -1.92547033
I       12.99312726      13.10682617       3.22820322       0.00801720       0.00057242       0.01004177      -2.01732981
C       16.61396648      16.44421597       3.26764417       0.02681314      -0.00908277       0.00971066      -8.92888039
H       17.69270489      16.30656375       3.16499373       0.02291596      -0.01549303       0.00161137      -3.43735113
N       15.91812216      16.76014386       2.19316218       0.01461774      -0.00158223       0.00824654      -8.73508531
H       16.37897943      16.93915044       1.30821293       0.02908978      -0.00691233      -0.00402385      -3.74186137
H       14.91399848      16.92763843       2.22479516       0.03393427      -0.00124381       0.00738851      -3.67051760
N       16.06276269      16.27588032       4.45146724       0.02550351      -0.00086918      -0.00391392      -8.72418306
H       15.06625285      16.42327184       4.62529120       0.02734955      -0.00223667       0.00114120      -3.70659788
H       16.61847336      15.98802712       5.25025454       0.03075569      -0.01153463       0.00874322      -3.74552375
Pb      13.24036769      13.13146176       6.53148427       0.00049653      -0.02157214       0.01512784      -4.67425167
I       16.47116755      13.22462382       6.56399001      -0.00188049       0.01859905       0.02188190      -1.92678661
I       13.12480718      16.37470033       6.58049326      -0.01433039       0.00207592      -0.00769445      -2.01046589
I       13.15281123      12.92266203       9.75174936       0.00049109      -0.02747119       0.00439362      -1.94174968
C       16.54531372      16.46668876       9.72852557       0.00028463      -0.02251970      -0.01041734      -8.91513438
H       17.31561964      16.02839427       9.08759092       0.00970629       0.00280190      -0.01416686      -3.44039547
N       16.50913921      17.77812082       9.86607864      -0.00930631       0.00998609      -0.01086258      -8.68111550
H       17.17104700      18.37793863       9.38114542       0.01253903      -0.00102301      -0.00197547      -3.80279986
H       15.81589939      18.24219452      10.45144751       0.01901242      -0.01212941      -0.00194549      -3.68706425
N       15.69009949      15.66348656      10.32500235       0.02041523       0.01142028      -0.02284736      -8.63766005
H       14.98512031      16.01694176      10.98360469       0.02977941      -0.01746632       0.00686654      -3.78996795
H       15.74249277      14.65604993      10.21551243       0.02181849      -0.01907978      -0.02121321      -3.75169315
Pb      13.18602087      13.14113193      12.99956218      -0.01137905       0.00318775      -0.01383903      -4.64744297
I        3.29057224       6.19627958      -0.16946763      -0.01596574      -0.03379773      -0.01024154      -1.93742947
I       13.43259674      16.42487417      13.01521787       0.00007079      -0.00399337      -0.01542675      -2.07958442
I        0.06344382       6.78530017       3.22775121       0.00263570      -0.00125400      -0.01056797      -1.95837309
C        3.33966681       9.83606219       3.22388941      -0.02100472       0.01890606       0.00490653      -8.93675051
H        2.55350986      10.59461085       3.17774068      -0.01718054       0.00584385      -0.01843810      -3.42897233
N        3.38355802       8.91124812       2.28858111      -0.01922921      -0.01321073      -0.01868795      -8.67761468
H        2.70244433       8.89386534       1.53436888      -0.01890087       0.00372778      -0.01196915      -3.80255260
H        4.09026163       8.17289848       2.30550926      -0.02134387       0.01222971      -0.01116956      -3.70947556
N        4.19542883       9.88427799       4.22364301      -0.02734197      -0.01382804      -0.02476322      -8.65144720
H        4.97085145       9.22367796       4.29821001      -0.02178961       0.01969851      -0.01307553      -3.70378994
H        4.16298449      10.63589007       4.90769506      -0.02337159       0.02271920      -0.00656430      -3.82730389
Pb      13.28341238      19.68882306      13.04638994      -0.00739728      -0.00104799      -0.00394412      -4.66784339
I       16.50982200      19.67029800      13.05668888      -0.00636960       0.00457947      -0.00111833      -1.90268948
I       13.57812122      22.90233902      13.23910352       0.00405718      -0.00109070       0.01803717      -2.03424085
I       13.06669753      19.64356323      16.28083143      -0.00802764       0.00438506      -0.00070875      -2.01020874
C        3.54627445      16.29381746       3.30662160       0.02209307      -0.02534861       0.03134407      -8.92917123
H        4.59262462      16.19293073       3.60453471       0.02278752       0.00030727       0.02658955      -3.44495246
N       16.33933790      23.91379131      15.47582123       0.03556752       0.02323933      -0.00001214      -8.63978863
H        3.84356688      11.37022691      21.61049303       0.03040773       0.00073742       0.03947973      -3.79057093
H        2.18900725      10.83593406      21.63670767       0.03697157       0.00484655       0.01563876      -3.74642138
N        2.66629392      15.45437628       3.81680380       0.04125632      -0.00455331      -0.00711991      -8.71276502
H       14.80032925      22.15168865      16.57059448       0.02350172      -0.01363613      -0.00809861      -3.64074819
H        2.94002171      14.74869339       4.49726351       0.02474876      -0.01155089       0.00631053      -3.82046094
Cs       3.53502166      16.32548553       9.76617824       0.00578483       0.00002300       0.00196687      -3.64830913
