233
Lattice="-12.957396986651146 6.351727325886291 13.017959588757243 13.11604327292129 6.668741413988977 13.017959588757243 13.195366416056363 13.17897578392661 -6.508979794378622" Properties=species:S:1:pos:R:3:forces:R:3:energies:R:1 energy=-1065.0714100590017 stress="-0.0005438612971395358 0.0008093801069704955 0.0002185986509988666 0.0008093801069704955 -0.0009125951290902579 -0.00013149984239645314 0.0002185986509988666 -0.00013149984239645314 -0.0007137240005122831" free_energy=-1065.0714100590017 pbc="T T T"
Pb       6.77908113      19.55318626       6.50719130      -0.00998206       0.00612513       0.00394975      -4.63955370
I        9.96334822      19.66952274       6.50354716       0.00276710       0.02144493      -0.01100571      -1.92107590
I       -6.49715473       9.71278685      12.79832134      -0.01844957       0.00326096      -0.00464268      -2.04210033
I        6.57950556      19.66705933       9.74930292       0.02062624       0.01835874       0.00205874      -1.97324801
C       -3.07848438       9.64965569      16.27876532       0.02126650       0.00239964       0.01013747      -8.91560631
H       -2.42351031       8.77365254      16.30683150       0.01096429      -0.01379446      -0.00285816      -3.46130522
N       -2.66429900      10.75767906      16.85656413       0.00057514      -0.02801568      -0.00656841      -8.69871968
H       -1.78047476      10.78122255      17.36163063       0.00473395      -0.01184359       0.00643575      -3.82083706
H       -3.24865063      11.59226603      16.88964443      -0.00219125      -0.00587783       0.00180673      -3.66156470
N       -4.23919935       9.54824739      15.66467660      -0.00482431      -0.03380427      -0.01902675      -8.68096897
H       -4.86776857      10.35118004      15.59239703      -0.00051488      -0.01290666       0.00113133      -3.73635308
H       -4.52993599       8.67954384      15.22625540       0.01248731      -0.00482970       0.00667270      -3.77151377
Pb       0.21582450      19.51933061       6.53016063       0.00615135       0.00420732      -0.00013480      -4.64928900
I        3.48768033      19.38618869       6.78701602       0.00144063      -0.00091611       0.00854370      -1.98537268
I       13.21136984       9.91105435      12.98665288      -0.00588785       0.00618461      -0.01520503      -1.97480705
I       13.18434965      13.20632997      -3.24131714      -0.00905255       0.01578973      -0.00445995      -1.94786891
C        3.21989411       3.28930362       3.26270071      -0.04342908       0.00057637      -0.00195763      -8.92141822
H        2.20907793       3.15654120       3.65656141      -0.01606158       0.00388973       0.00143739      -3.45093462
N        3.37396460       3.52623717       1.97633414      -0.00366018      -0.00421278      -0.00062098      -8.68309911
H        2.56434875       3.57783310       1.35914898      -0.02124508      -0.00986062      -0.00165375      -3.81074182
H        4.29727537       3.63211125       1.54941120      -0.01795413      -0.01470759       0.00300773      -3.72578112
N        4.23008746       3.21220009       4.10583354       0.00566832       0.00674612       0.01035079      -8.79387370
H        5.19300003       3.33279801       3.80410104      -0.03282618       0.00021494       0.01184315      -3.61991575
H        4.08386014       3.01251339       5.08817589      -0.02512593       0.01101636       0.00605586      -3.72466603
Pb       0.24885574       6.33271857       6.52879750       0.01147662       0.00705923      -0.00416016      -4.66742074
I        3.41624960       6.49783166       6.61481773       0.01244060       0.01651790       0.01302648      -1.88706017
I        0.26149114       9.72445611       6.46017654      -0.00081414      -0.00373374      -0.00086076      -2.06662800
I        0.12983341       6.28602907       9.76229627       0.02984087      -0.00804509      -0.00403300      -1.94354679
C        3.43291785       9.80665894       9.66857183       0.00705705      -0.00580265      -0.02652186      -8.91937033
H        3.11819910       9.80011091       8.62276278       0.00340356       0.00222638      -0.01162267      -3.43156439
N        4.68846223       9.53058674       9.95453719       0.00600651      -0.00440537      -0.00674998      -8.67058093
H        5.35190878       9.32964871       9.20989724       0.00719595       0.00860967      -0.02351064      -3.79937053
H        5.05034758       9.55581897      10.91350832       0.00921650       0.00157423      -0.01878146      -3.74990370
N        2.53010405      10.07081907      10.59163934       0.00278544      -0.01025134       0.00316337      -8.70496167
H        2.77471293      10.12674350      11.57624646       0.00596003      -0.01583935      -0.01561610      -3.61732688
H        1.58879300      10.36590426      10.34520741       0.00721268      -0.00596283      -0.00584109      -3.81534697
Pb      13.24640586      19.66738192       6.52306715       0.00257313       0.01320255       0.00281778      -4.67630467
I       16.50914329      19.84944138       6.64552759       0.00314873       0.01421724       0.01223053      -1.95987549
I        0.04705552       9.75847566      13.22781214      -0.00221986       0.00925638       0.00386210      -1.95438689
I       12.95185616      19.69929996       9.78155408      -0.01684960      -0.01568071      -0.00177322      -1.94691953
C        3.33299656       9.69836178      16.26991425      -0.00660696       0.00775597       0.00277446      -8.93702011
H        2.95346501       8.67719835      16.19997064      -0.03127231      -0.01613231      -0.00121702      -3.42959121
N        3.93627096      10.07143967      17.37861579      -0.01857660      -0.03502700      -0.01779959      -8.70469104
H        4.04575594       9.42351744      18.15393076      -0.01395558      -0.01272683      -0.00844097      -3.79536601
H        4.30423083      11.01215241      17.50954262      -0.00003374      -0.00380324      -0.00516321      -3.68187517
N        3.17248762      10.49811375      15.23492805      -0.02039650      -0.03451085      -0.00481072      -8.71780229
H        3.57854288      11.43055512      15.19757151       0.00525588      -0.00720545      -0.01209576      -3.64595305
H        2.60953052      10.20645045      14.43963124      -0.01308794      -0.00698762       0.00053592      -3.80617146
Pb       0.20109367      13.03626424       6.54268825       0.00882220       0.00006992       0.00846053      -4.64347000
I        3.46559631      13.22153195       6.74969425       0.00517468      -0.00159972       0.01489148      -1.97944242
I        0.29999518      16.23227438       6.70415946       0.00775730       0.00262291       0.01755761      -2.00173258
I        0.03879577      12.64620548       9.80060379      -0.02146523      -0.02165103       0.00288924      -2.03700052
Pb       0.15395896      13.02474284      13.13046209      -0.00121527       0.00617920      -0.00943204      -4.64614671
I        3.44404266      13.20892466      12.78249721      -0.00029490      -0.00004090      -0.01004308      -1.99155580
I        0.15632808      16.24780583      12.62461699      -0.01722081      -0.00012454      -0.03472856      -2.02646499
I        0.37176810      13.37166842      16.30810161       0.01739430       0.01604198      -0.00120306      -1.97866444
C        3.50760098      16.26975638      16.23419793       0.01460784      -0.00712409      -0.00612319      -8.89485419
H        4.26616303      16.94877618      15.83433053       0.01463048      -0.01099329      -0.00662435      -3.45003177
N        2.31216477      16.74831134      16.50515378       0.00138563       0.00180389      -0.01695622      -8.53520338
H       15.04642293      11.39033203       3.38813799       0.00501774      -0.01959603      -0.02390990      -3.88346339
H        1.60563146      16.17100175      16.96528494       0.00272112      -0.01426260      -0.01944772      -3.72730464
N        3.81570798      15.00105396      16.40854120       0.03314289      -0.00902815       0.00393445      -8.61368612
H        3.12683511      14.34829114      16.78382551       0.00585065      -0.01518011      -0.00647324      -3.70375798
H        4.74814452      14.62967676      16.21553409       0.00576904      -0.00137932       0.01231777      -3.86029894
Pb       0.22923595      13.04575686      19.56419916       0.00702860       0.01055952      -0.00019131      -4.67062960
I        3.45556111      13.07827531      19.68443167       0.01059311      -0.00780015       0.00475999      -1.95794393
I       13.33534141       9.93665919       6.52910890       0.01629042       0.01270369       0.01084315      -2.00279846
I        0.08624986      12.93501732      22.79641498       0.01631048      -0.01458245      -0.00170952      -1.96066414
C        3.45616262      16.28847100      22.68937471      -0.00244811      -0.00299693      -0.01714105      -8.90608374
H        3.12438603      15.90035367      21.72265228       0.00345383      -0.00988120      -0.01847128      -3.44340854
N       16.51930415      11.24082043       9.82409367      -0.00119311      -0.01105384      -0.00944804      -8.66751542
H       16.36903391      11.86181037       9.02918425       0.00048522      -0.00675717      -0.01603155      -3.82539128
H       16.72366853      11.67110386      10.72988585      -0.01860211      -0.00830525      -0.00945723      -3.72851701
N        3.71441024      15.42882445      23.65631195      -0.00993114      -0.01641369      -0.01615967      -8.72837510
H       -8.92536601       9.05433922      11.49222830       0.00006979      -0.00973305      -0.01337506      -3.71398565
H       -9.47669170       7.76122056      10.48516248      -0.01211593      -0.00189099      -0.01023020      -3.71357933
Pb       6.62652820       6.65550680      -0.07413463      -0.00128745       0.00172781       0.00204658      -4.65695118
I       -3.05916592      13.02794269      13.23351536       0.00474722      -0.00081333      -0.00231614      -1.89549427
I        6.67288449       9.83346392      -0.40161641       0.00807071       0.00650835       0.00464450      -1.96852423
I        6.73869905       6.38891453       3.23716355       0.01122907      -0.01916582       0.00098922      -2.04339654
C        9.90951738       9.81555418       3.35900632      -0.00468438      -0.00817179       0.00928240      -8.90948472
H        9.92693590       9.33966178       4.34190137       0.01413211      -0.01675347       0.01542814      -3.46020117
N        8.97838110       9.44436580       2.50385937       0.00053431      -0.00167950       0.03155638      -8.70966664
H        8.34157561       8.68004260       2.72383146       0.00332163      -0.00928460       0.02061069      -3.82938511
H        8.92869897       9.82563008       1.56045785      -0.01237493       0.00313961       0.01919954      -3.65301488
N       10.82070906      10.72767833       3.08455071       0.00103009       0.00078157       0.02525338      -8.70242060
H       10.79757694      11.25300685       2.20735119      -0.01606596       0.01317322       0.02031324      -3.73929804
H       11.48239036      11.02748817       3.79320287      -0.00379291      -0.00368233       0.01059111      -3.73433561
Pb       6.63639254       6.47966390       6.54399765       0.01481053       0.00179586       0.00364475      -4.67826246
I        9.89163023       6.92407900       6.43898829       0.01123672       0.02184116      -0.02127091      -1.96382512
I        6.65759349       9.81323638       6.63155820      -0.00866124       0.00557507       0.00616612      -2.01356696
I        6.80620454       6.40944425       9.74614454       0.02472702      -0.01395256       0.00092539      -1.95548205
C        9.93119010       9.93673733       9.78787432       0.00101459       0.01425245       0.00728205      -8.89511191
H       10.57340524      10.33690240      10.57729802      -0.00132275       0.02405392       0.00570956      -3.44073006
N       10.32777306      10.03092599       8.53459196       0.00085542       0.00394971       0.00586325      -8.69014779
H       11.22858078      10.42677943       8.27676195       0.00196634       0.00540350       0.00432735      -3.80212245
H        9.77080026       9.64112739       7.77447288       0.00260742       0.00112399       0.00909927      -3.68286461
N        8.77943070       9.39103282      10.12322867       0.00466365       0.01365168       0.01383199      -8.64254770
H        8.20383441       8.90118651       9.43715058       0.00841354      -0.00425115       0.01678464      -3.69751553
H        8.46388113       9.35082332      11.09147159       0.00389343       0.01855175       0.01012527      -3.84135538
Pb      19.81506172      19.66431989       6.55888558      -0.00193049       0.00119551      -0.00821961      -4.66198789
I       23.05115036      19.77322404       6.60933751      -0.00308826       0.01887966       0.01049912      -1.94972173
I        6.64506545       9.79462741      13.11640966      -0.01350220       0.00020390      -0.00635635      -2.01122979
I       19.84684769      19.73686943       9.75831822       0.02514923       0.01916716      -0.00105669      -1.96577737
C        9.93681029       9.84260801      16.30615052       0.00630393      -0.00435936       0.00433714      -8.90834689
H        9.97384885       8.97488562      15.64171341       0.00594622      -0.00447048       0.00184449      -3.44445495
N        9.88520195      11.04888076      15.77362531       0.01000646      -0.00705417       0.00563583      -8.73251074
H        9.88500482      11.21094761      14.76838223       0.00641657      -0.00272462       0.00753635      -3.79317945
H        9.80873548      11.87067776      16.36922697      -0.01027076      -0.00499771       0.00753771      -3.62847956
N       -3.16810720       2.98325808       4.59355589       0.00373447      -0.00721408       0.00422113      -8.66989088
H       -3.19393083       3.77982256       5.23628048       0.00105425      -0.01009203       0.00556450      -3.72556434
H       10.04503044      15.23036510      -1.50412476      -0.00187794      -0.01041407       0.00133985      -3.81941370
Pb       6.62835236      13.08149482      -0.01709463       0.00282115       0.00506784       0.00488944      -4.66190082
I        9.96380179      13.10854629       0.31189083       0.00238079       0.00429753       0.01739514      -2.07456653
I        6.71335283      16.28034293       0.07408308      -0.00825923       0.00351900       0.01561015      -1.90982384
I        6.55576438      13.04213298       3.26815837      -0.00594741      -0.00562523      -0.00103885      -1.97087891
C        9.94369812      16.52709288       3.33002656       0.00624330       0.01636021       0.01795484      -8.91693091
H       10.24097970      17.47928477       3.77790035      -0.00978289       0.01948975       0.01738362      -3.43421755
N       10.85538621      15.58366328       3.20963863      -0.00363819       0.02478036       0.00648949      -8.69379579
H       11.79009180      15.70539370       3.58580304       0.00786300       0.03019218       0.01728356      -3.77164126
H       10.66292413      14.71719846       2.70708928       0.01545165       0.02384761       0.01061040      -3.69939215
N        8.69649740      16.37300368       2.94069693      -0.00704470       0.00209676       0.01593412      -8.64975076
H        8.34620316      15.49182890       2.56560271       0.00340542       0.00094594       0.02603598      -3.68389014
H        8.03597764      17.15035831       2.98912322      -0.00855585      -0.00034036       0.02045008      -3.86585025
Pb       6.74264058      13.05215683       6.53032589       0.00491809       0.00006662       0.00006377      -4.64464223
I        9.99046041      12.97215594       6.24984312       0.00731314       0.00483931      -0.01592568      -1.90436874
I        6.82668940      16.35167552       6.80552426       0.00626644       0.00298209       0.02178519      -2.04350952
I        6.58255648      13.29137181       9.76062654       0.02735888       0.00169262       0.00384128      -1.93023753
C       10.07641807      16.39543337       9.77140788       0.01372947       0.00226016       0.00656373      -8.92711408
H       10.95781364      16.42140246      10.41852723       0.01783081      -0.00627078       0.00542124      -3.43638771
N        8.98561187      17.01470716      10.17827933       0.02458343       0.00391909       0.00937572      -8.70979366
H        8.96426522      17.51943623      11.05923617       0.01953683      -0.00151813       0.00653620      -3.78215399
H        8.14745478      17.04779475       9.59832662       0.01436251       0.00736081       0.00461636      -3.67957121
N       10.14936100      15.74751534       8.62851371       0.01160236       0.00370692      -0.00026403      -8.66805280
H        9.35101789      15.69773282       7.99237074       0.01351950       0.00620001       0.00478916      -3.72008427
H       11.00370189      15.27742094       8.34284249       0.01160405       0.00075971       0.00011780      -3.79941714
Pb       6.70112024      13.11407877      12.92664624       0.00019220      -0.00050073       0.00591193      -4.63622196
I        9.96479314      13.16644305      12.76236169      -0.00030646      -0.00625177       0.00279269      -1.97550368
I        6.64177188      16.32115378      13.07350417      -0.00206661      -0.00205475      -0.00605783      -1.96693547
I        6.73904872      12.94548773      16.27809454       0.00851611      -0.00573138       0.00947199      -2.00798690
C       10.00997009      16.41469337      16.22922941       0.00492788      -0.00192555      -0.00676031      -8.89419367
H        9.36980937      15.87607229      15.52443279       0.01143943       0.00308227      -0.01691310      -3.42723608
N       11.08642203      15.81578797      16.69546095       0.00382500      -0.00215063      -0.00303911      -8.61745600
H       11.35767762      14.87903162      16.40015568       0.00854382       0.00214970      -0.01332340      -3.81221343
H       11.68441249      16.24775424      17.40691641      -0.00141422      -0.00941744       0.00366638      -3.75716239
N        9.67583459      17.64466417      16.56666104      -0.00451687      -0.00410538       0.00284654      -8.61149519
H       10.20845026      18.17923967      17.25509550       0.00074713      -0.00457962       0.00807951      -3.70764182
H        8.80174047      18.06501696      16.24385776       0.00688185      -0.00299940       0.00289990      -3.87232452
Pb       6.72977297      13.08555933      19.54561858       0.01022351      -0.01035941      -0.00029050      -4.66169194
I       -3.11538001       6.28423662       6.47420298       0.01522271      -0.01569163       0.00496439      -2.00578053
I        6.86696479      16.27197957      19.66934907       0.01451138      -0.00284011       0.02865448      -1.89177543
I       -6.57605596       6.22339773       9.78999061      -0.01091864      -0.00516895       0.00568591      -2.02425478
C       -3.19731716       9.65658585       9.74502740      -0.01662949      -0.02834220      -0.00639523      -8.93318132
H       -4.05844011       8.99272310       9.63438294      -0.01687448      -0.01724526       0.00389722      -3.42910164
N       -2.09154203       9.36778016       9.08681092      -0.01939017      -0.01329987      -0.00043008      -8.71046262
H       -2.02542001       8.53883179       8.50424980      -0.02283821      -0.01863560      -0.00734388      -3.76749876
H       -1.30152004      10.01300181       9.07726889      -0.01846215      -0.01592487      -0.01107182      -3.69231881
N       -3.30693199      10.70885749      10.52839314      -0.00700033      -0.00771989       0.00739488      -8.68290487
H       -2.52428374      11.34553041      10.68370481      -0.01962837      -0.01820908      -0.00578700      -3.70900712
H       -4.16931395      10.90869149      11.02595387      -0.01434789      -0.01554283       0.00009672      -3.80046646
Pb       6.70173552      19.56622340      12.96513751      -0.00194524       0.00481719       0.00822235      -4.62391246
I        9.97141788      19.69723873      13.05706913      -0.00297499       0.01548276       0.01534702      -1.99993618
I        6.97523071      22.80104198      13.20227816      -0.01725313       0.00248773       0.00706432      -1.93110628
I        6.51970201      19.34054402      16.24036909      -0.01143346      -0.00200596      -0.00099071      -2.06186627
C       10.07021170      22.93379338      16.35118492      -0.00132308       0.00688874       0.01401823      -8.92795836
H       10.04284696      23.54855754      17.25476421      -0.00480751       0.01041526       0.01170818      -3.43352609
N        9.28863777      21.87416429      16.28981090      -0.00290257       0.00648755       0.00684402      -8.70870397
H        8.64141170      21.66531503      17.04511634      -0.01085104       0.01314739       0.00903719      -3.78081501
H        9.25294444      21.28977917      15.45285123      -0.00126318       0.00811281       0.01325749      -3.70967458
N       10.88537240      23.28747259      15.37918398       0.00655033       0.00668861       0.02136574      -8.70161108
H       10.95882335      22.75100094      14.51624015       0.01072957      -0.00151901       0.01746554      -3.64986404
H       11.49294198      24.10082945      15.47710896       0.00808925      -0.00328120       0.01919760      -3.83343127
Pb       6.80650417      19.47299624      19.56876059       0.00380776      -0.00143807      -0.00402885      -4.65971443
I       10.08049452      19.66817238      19.72944064       0.00535052      -0.00132951      -0.00431837      -1.95785939
I       19.89226897      16.41964249       6.37164845      -0.00746027      -0.00013979      -0.00882099      -1.98178962
I       19.78650877      13.33557416       9.73083770       0.01344510       0.02024459      -0.00014509      -1.95835166
C        9.79763594       9.91677845      -3.34544259      -0.01704046       0.02340036      -0.01345647      -8.93538360
H        9.00159548       9.74885939      -4.07625158      -0.02586294       0.00902110      -0.01820424      -3.44092067
N        9.96959647      11.13525903      -2.87288245      -0.02038660      -0.01093311      -0.02194410      -8.70023659
H        9.35000337      11.89142633      -3.15566775      -0.01380498       0.00470273      -0.00280471      -3.79879892
H       10.72899386      11.35950573      -2.23179265      -0.00168273      -0.00058797      -0.00921629      -3.67807289
N       -2.42115249      15.24491592      10.04347119      -0.01903760      -0.01662804      -0.03692499      -8.68328100
H       -1.68534145      15.34712579      10.74850126      -0.01532007      -0.00505089      -0.02150240      -3.74696721
H       -2.54405261      14.33154774       9.61771842      -0.02076061       0.01248272      -0.02545067      -3.75624091
Pb      13.30294529      13.18644705      -0.09083692      -0.00582765      -0.00565131       0.00062560      -4.63011983
I        3.48844720      19.29791291      12.75434677       0.00064335      -0.01613526      -0.02155614      -2.00981478
I       13.62030490      16.36550005      -0.03954482       0.04236610      -0.00309941      -0.02070818      -1.93200142
I       13.62483782      13.45101243       3.20482047      -0.00595377       0.00264251      -0.00747763      -2.06935359
C       16.37178730      16.50861172       3.25432833      -0.01943501       0.00777770       0.00241121      -8.92505195
H       15.29092257      16.67002957       3.25124748      -0.02134967       0.01121193       0.00007014      -3.45089984
N       16.84390869      15.37703504       2.77619369      -0.01000891       0.01317351       0.00119463      -8.65820337
H       16.21740352      14.64932462       2.44318846      -0.02650808       0.01066626      -0.01059479      -3.80861479
H       17.83631026      15.13679809       2.82596214      -0.02551943       0.00550244       0.00002987      -3.71131637
N       17.14418981      17.46393402       3.72812294      -0.03233284       0.00927574       0.01184963      -8.71230232
H       18.16126644      17.39975518       3.70740971      -0.01323981       0.01002213       0.00501004      -3.67610012
H       16.75216223      18.31268522       4.12648446      -0.02216205      -0.00195525       0.00981800      -3.77732508
Pb      13.26056625      13.21411998       6.48251040       0.00528790       0.00472026      -0.01055118      -4.64948915
I       16.51201227      13.03373493       6.52102251       0.00633380       0.00225687      -0.00028937      -1.96075130
I       13.27400388      16.41317680       6.41719396      -0.00346382       0.00829821      -0.01347180      -1.93966696
I       13.11479160      13.34565594       9.69803861       0.00148036       0.01961357      -0.00450205      -2.01262627
C       16.55307303      16.47982429       9.75051762       0.01192603      -0.00080536      -0.00024804      -8.89887151
H       17.50170870      16.95199475       9.48123440       0.01403537       0.00074861       0.00312075      -3.43042405
N       16.39170303      15.19558332       9.50136753       0.01218996       0.00348416       0.00028347      -8.66008154
H       17.14805084      14.64049310       9.10876830       0.00881147       0.00070564       0.00783532      -3.80039288
H       15.48970113      14.73038160       9.64151541       0.00293010       0.00297342      -0.00567967      -3.74896346
N       15.61273572      17.22428783      10.29917563       0.00853492       0.00109554      -0.00174805      -8.67259981
H       14.77836219      16.81161641      10.72220499       0.01206850       0.00740494      -0.00236163      -3.71103299
H       15.77560667      18.20659256      10.50120549       0.00967850       0.00575047      -0.00676023      -3.79154468
Pb      13.20340424      13.17430721      13.01865641       0.00607596       0.00817491      -0.00340047      -4.65679492
I        3.38446482       6.69785327      -0.03322781       0.00169733       0.01440192      -0.01456687      -1.96762386
I       13.18844260      16.43387264      13.04088234      -0.01596400       0.01090320      -0.01413661      -1.98117141
I        0.19490177       6.25674364       3.20877254       0.01943321       0.01133103      -0.00302756      -1.96006301
C        3.40264590       9.75574686       3.24710281       0.00402589      -0.00642875      -0.00028183      -8.89659128
H        2.59119621       9.20191129       2.76672232       0.00672530      -0.02524461       0.01021714      -3.43271253
N        3.19573396      10.27162171       4.44001414      -0.00172663      -0.00256280       0.00066649      -8.62300897
H        2.30819604      10.13728558       4.93209067       0.01102283      -0.01190289       0.00250972      -3.88945632
H        3.91449526      10.79907628       4.93452999       0.00631490       0.00010483      -0.00257648      -3.66968550
N        4.55118668       9.87452151       2.60750278      -0.00852838       0.00473737      -0.01517228      -8.69863289
H        5.28280010      10.50033140       2.95043015      -0.01044444       0.02499967      -0.02211831      -3.71077042
H        4.69002406       9.47200296       1.68437297      -0.00523106      -0.00112935      -0.00257081      -3.77615135
Pb      13.18331577      19.67623463      12.97367818      -0.00636766       0.01225677      -0.00249375      -4.65450242
I       16.53763195      19.85804809      12.77952672      -0.00380415       0.01501081      -0.02400377      -2.02528786
I       13.35384541      22.95651123      12.67826243      -0.00685208       0.01350340      -0.00729639      -1.98396654
I       13.20287450      19.73117480      16.31680698       0.01279866       0.00878702       0.00519221      -1.97226834
C        3.51243894      16.30536647       3.25443671       0.00400373       0.00285189      -0.00159310      -8.88888981
H        4.31753146      16.82803668       2.73066906       0.00774915      -0.00114755      -0.00219764      -3.44085054
N        3.39810085      16.46937323       4.55824779       0.00331845       0.00347313      -0.00073842      -8.66349758
H        4.01753040      17.09183888       5.07072274       0.01192565      -0.00555076      -0.00088130      -3.78448304
H        2.60166294      16.09673046       5.08126583       0.00567827       0.00282222       0.00125301      -3.72739783
N       15.81790086      22.20639942      15.57371070       0.00101577       0.00713670      -0.00000720      -8.63631844
H       15.08979451      21.63117215      16.01116922       0.00378072       0.00125041       0.00072183      -3.75105839
H       15.94548019      22.08031056      14.57356900      -0.00192994       0.00657995       0.00001431      -3.78845000
Cs       3.48395815      16.29865011       9.80400266       0.00047460      -0.00189930       0.00342051      -3.67353394
