233
Lattice="-12.957396986651146 6.351727325886291 13.017959588757243 13.11604327292129 6.668741413988977 13.017959588757243 13.195366416056363 13.17897578392661 -6.508979794378622" Properties=species:S:1:pos:R:3:forces:R:3:energies:R:1 energy=-1065.3371672330038 stress="-0.0004294220802343158 0.0001886958513987501 -0.00010815386987482777 0.0001886958513987501 -0.0006065436507803454 4.9950340358809084e-05 -0.00010815386987482777 4.9950340358809084e-05 -0.000491208093100735" free_energy=-1065.3371672330038 pbc="T T T"
Pb       6.77052616      19.61343701       6.57691553      -0.00413571       0.00231520      -0.00130196      -4.63749649
I        9.98911721      19.45214741       6.80320779       0.00694161      -0.00202621       0.01263335      -1.98559433
I       -6.22425550       9.66370682      12.82481306      -0.00646963       0.00428253      -0.00822011      -1.98571192
I        6.60535235      19.74263347       9.76123361       0.00463721       0.03458642      -0.00158513      -1.99075793
C       -3.13580461       9.63532783      16.30672784      -0.02204722       0.00479852      -0.00440317      -8.91681837
H       -3.43801985       8.61493199      16.55118196       0.00120981      -0.01216056       0.00807442      -3.43462262
N       -1.87704970       9.98221434      16.47781596       0.00084830      -0.00225869       0.00805235      -8.66478209
H       -1.20074271       9.30367824      16.82211232      -0.00011022       0.00081374       0.00480307      -3.81482164
H       -1.54945194      10.94401824      16.35415145      -0.01213611      -0.00286785       0.00490423      -3.72821223
N       -4.05309826      10.47214140      15.85867183       0.01031279      -0.03171241       0.00830939      -8.74863372
H       -3.80286875      11.38854757      15.49019210      -0.00499728      -0.01499054      -0.01127754      -3.68533677
H       -5.00987287      10.17189632      15.71516143      -0.00465265      -0.01831232      -0.00111788      -3.72486612
Pb       0.27121587      19.43064441       6.59848441       0.00539079       0.01136325       0.00640443      -4.64221992
I        3.49380103      19.49299764       6.78247668       0.00506117       0.00017596       0.00091283      -1.97528282
I       13.23085112       9.95781460      13.18213719      -0.00351170      -0.00132924      -0.00183275      -1.99987549
I       13.31440977      13.23201307      -3.20106525       0.00991983      -0.00104255       0.01630693      -1.98888872
C        3.30485594       3.22906795       3.28436916       0.00058628      -0.00803109       0.00492571      -8.89916300
H        3.75318030       2.46677006       3.92865184      -0.00651623      -0.01679988      -0.00213317      -3.43362414
N        2.13464420       3.73044820       3.62193770       0.00248906       0.00145499       0.01407358      -8.63115512
H        1.64505309       3.42857556       4.46595822      -0.00076094      -0.00546658       0.00890117      -3.85055274
H        1.65510824       4.42843247       3.05001596       0.00307484      -0.00450513       0.01207081      -3.70564784
N        3.96572283       3.60403942       2.20803472      -0.00353994      -0.00279744       0.00737268      -8.64424470
H        3.63770885       4.36772954       1.60760876      -0.00430230      -0.00396956       0.00868613      -3.76078022
H       -8.10634947       9.52577817      14.96996610      -0.00934622      -0.01240042      -0.00565214      -3.78235711
Pb       0.16744966       6.53768362       6.50365042      -0.01055582       0.00684053       0.01111491      -4.65492891
I        3.36712837       6.77795954       6.57551794      -0.00082664       0.03682806       0.00676715      -1.93298074
I        0.16097188       9.76520441       6.46239731      -0.01206121       0.00893736       0.00644776      -1.95493541
I        0.23232596       6.21769114       9.77245653       0.00308298      -0.00004133       0.00569135      -1.99233053
C        3.39680597       9.63962126       9.76676823       0.00132439      -0.02661248       0.01451554      -8.94456597
H        3.26190827       8.55621965       9.76523206      -0.00304386      -0.01649073       0.00148130      -3.43635344
N        3.27421156      10.28420659       8.62446302       0.00402377       0.00509641      -0.00431697      -8.75164339
H        3.00173143       9.78926303       7.77995890       0.00717485      -0.02739512      -0.00167910      -3.76386731
H        3.41569323      11.29143477       8.54841865      -0.00176427      -0.04566689       0.00138863      -3.66629242
N        3.68417902      10.23348024      10.90815571      -0.00091593      -0.01917254      -0.01375915      -8.77028441
H        3.77517800      11.24660159      10.98819323       0.01234871      -0.02680703      -0.00122574      -3.67907426
H        3.79612404       9.69013828      11.75769179       0.00086076      -0.02282104       0.00301316      -3.72476302
Pb      13.30135287      19.61989528       6.48502564      -0.00064994       0.00595246       0.00491654      -4.67213771
I       16.54760951      19.79041402       6.49504601       0.00392324       0.02211351      -0.00750381      -1.96268684
I        0.10492179       9.72818933      12.75763066      -0.00499875       0.00664570       0.00298113      -1.93589342
I       13.30110575      19.98751609       9.77785276       0.01445651       0.01112201       0.00594797      -2.04026541
C        3.38984015       9.89742482      16.26398249       0.00920356       0.01417008      -0.00015394      -8.90088218
H        3.97124275      10.80787667      16.42994575       0.00306957       0.01092567      -0.00048512      -3.44009584
N        4.03530297       8.77303263      16.01842732       0.00951208       0.00796901       0.00238989      -8.73896634
H        5.04824242       8.73482972      15.98114565       0.00944413       0.01743654       0.00737783      -3.75760775
H       16.73352662      21.10618160       9.23580840       0.01338464       0.01614935      -0.00390429      -3.65432112
N        2.07592213       9.95718658      16.32776180       0.00368809       0.00650988      -0.00534970      -8.60754568
H        1.50427092       9.11018346      16.24201674       0.01063942       0.00622918      -0.00112725      -3.75523313
H        1.59177414      10.84410343      16.47662467       0.00637467       0.00768189      -0.00932831      -3.85423745
Pb       0.10260724      13.01854386       6.54268556       0.00630977       0.00192843       0.00330230      -4.63560899
I        3.38055588      13.20093689       6.28179943      -0.00651715      -0.02396268      -0.02082166      -2.02999810
I        0.38706453      16.27547533       6.71895661       0.00120237       0.00617987       0.01310845      -1.95874831
I        0.42037217      13.14731597       9.76706767       0.03484957       0.01060836       0.00609448      -1.95260775
Pb       0.17659093      12.97333265      12.94688039      -0.00563732       0.01186344       0.00978965      -4.63917266
I        3.38116521      13.28794076      13.13678312      -0.00140238      -0.00396366       0.00909030      -1.99039529
I        0.22066137      16.25533172      12.97510917      -0.02537126       0.00370360       0.00907162      -1.98751896
I        0.17486627      13.12734531      16.28892119      -0.00184973      -0.00502805       0.00083813      -2.04907714
C        3.38277923      16.27026263      16.14046499      -0.01603564      -0.03186423      -0.00230517      -8.92196927
H        2.90655183      16.09088441      15.17257763      -0.01518506      -0.00576638      -0.01564775      -3.44308749
N        3.84358815      17.47807939      16.39643692       0.00244000       0.00232236      -0.00651831      -8.69352886
H        3.81947976      18.19775215      15.67809119      -0.00633932      -0.00776986      -0.02583600      -3.79073094
H        4.25385383      17.71909501      17.29931688      -0.01696601      -0.01022272      -0.03079539      -3.69672305
N        3.45981302      15.27381936      16.99719395      -0.02422921       0.01579551      -0.02947726      -8.72076590
H        3.98406956      15.35615595      17.86959641      -0.01687736      -0.00291521      -0.01088946      -3.71390904
H        3.06309666      14.36579690      16.78044650      -0.02896886       0.00276326      -0.00603513      -3.74522716
Pb       0.15645157      13.09389507      19.61812476       0.00262908       0.00424532      -0.00259585      -4.67467750
I        3.46492880      12.90836928      19.69280086      -0.00071868       0.00482078       0.00795090      -1.95742885
I       13.14141849       9.93632665       6.64384327      -0.00581438       0.00972195       0.01729831      -1.91248836
I        0.04743765      12.91566244      22.82259410       0.00439198      -0.00218633       0.00784132      -1.97478973
C        3.50753050      16.30094883      22.77146275       0.00225671      -0.00884535       0.00475672      -8.90432236
H        4.31786880      15.83819418      22.20149189       0.00322053      -0.00037669      -0.00267035      -3.44541963
N       16.34292927      11.26125462       9.72548330      -0.00120023       0.00047250       0.00309067      -8.66057173
H       16.99167699      11.83756746       9.19447676      -0.00516085      -0.00111395      -0.00313325      -3.81309124
H       15.53190281      11.73781030      10.12567553      -0.00585629      -0.00975198      -0.00956549      -3.71801769
N        2.69826026      15.52282548      23.46337819       0.01429545       0.00362483       0.00574564      -8.70149115
H       14.95096533       9.55296261      11.08380625       0.00919643      -0.00460718       0.00388000      -3.74903422
H        2.80246083      14.51491932      23.45303552       0.00876587      -0.00759994       0.00448815      -3.72225023
Pb       6.50929057       6.58195592       0.01455338       0.00145286       0.00174328      -0.00535291      -4.63936755
I       -3.11867954      12.84106928      13.00437936      -0.00305146       0.01354843       0.00040208      -2.01548682
I        6.74209202       9.83104859       0.04858495      -0.00134893       0.00367626      -0.00262263      -1.97760781
I        6.40206514       6.78204335       3.26841334      -0.00383898       0.00141923       0.00078002      -1.97153224
C        9.92247840       9.88550884       3.40622258      -0.00779950      -0.01636789       0.00637289      -8.92601033
H       10.18610335       9.56786295       4.41845045       0.00006252      -0.00303297       0.02379506      -3.43880130
N       10.08931190      11.14811683       3.07475434       0.00689127       0.00573569       0.02053238      -8.64881400
H       10.43342057      11.82065533       3.75507572       0.00230191      -0.00162423       0.02467422      -3.79271908
H        9.94206738      11.49607741       2.12012507      -0.00031776      -0.00076151       0.03190455      -3.75627506
N        9.46318234       8.97615520       2.56784005       0.00602621       0.00452689       0.04063985      -8.72308623
H        9.08716802       9.22635750       1.65272781      -0.00934191       0.01009095       0.02470564      -3.70619975
H        9.31624291       8.02037453       2.87093921      -0.00740427       0.01444247       0.01644505      -3.73214593
Pb       6.62245159       6.57069979       6.49144867       0.00081479       0.01629271       0.00982381      -4.66182020
I        9.89045739       6.70682790       6.36327443       0.00086767       0.01314571      -0.01132089      -1.95355664
I        6.91623104       9.87030711       6.58187994      -0.00316235       0.01041800      -0.00793676      -1.97476063
I        6.57093449       6.83432137       9.81628498       0.01169188      -0.00913539       0.00384817      -1.99938169
C        9.87444819       9.87137162       9.69856176      -0.00255159      -0.00879920      -0.00183067      -8.92514931
H       10.31594815       9.87057764       8.69803284      -0.01106139      -0.00433981      -0.01201459      -3.44088751
N        8.64741916      10.32204942       9.85472634      -0.00782537      -0.00765513      -0.00543798      -8.64094736
H        8.08210569      10.57665256       9.04580860      -0.00907328      -0.00834675       0.00163256      -3.81291760
H        8.17126495      10.27865504      10.76112000      -0.00057510      -0.01064870       0.00204717      -3.74181500
N       10.61438569       9.44272320      10.70352003      -0.00525061      -0.00337530      -0.02076846      -8.75146949
H       10.25889392       9.42655793      11.65521623      -0.00082490      -0.00605996      -0.00904595      -3.61525487
H       11.53711981       9.04774024      10.54858739      -0.00188747      -0.00392185      -0.01653414      -3.79165726
Pb      19.78454744      19.75118813       6.54717557       0.01490606       0.00533935       0.00434028      -4.66029119
I       23.08130341      19.65973683       6.61080099       0.00308176      -0.00152612       0.00588893      -1.99962328
I        6.75665523       9.82099203      13.10186429       0.00884147       0.00716855       0.00352979      -1.97761980
I       19.89421794      19.48828573       9.82182213       0.00557816       0.00552393       0.00000790      -1.97264606
C       10.01048670       9.88582568      16.22764995       0.01942828       0.00803765      -0.00297376      -8.91536004
H       10.86379122      10.16479821      15.60302458       0.01166113       0.00699098      -0.00733195      -3.43965649
N        9.37537221       8.76551902      15.95411642       0.01383425       0.00446518       0.00474064      -8.61757961
H        9.63715017       8.18355755      15.15582635       0.00964511       0.00670501       0.00071989      -3.87422755
H        8.56677537       8.44947995      16.49184437       0.02196596       0.01014135       0.00939662      -3.69225173
N        9.67232588      10.67991802      17.22330926       0.02128773       0.00600868       0.00255677      -8.67153186
H        8.86487163      10.47027954      17.82085246       0.02264666       0.00903788       0.00012667      -3.76567674
H       -2.93635772       4.87255556       4.38727064       0.02298761       0.00680520      -0.00345445      -3.75310518
Pb       6.70067709      13.08114019       0.08303241      -0.00202792       0.00467494      -0.01025713      -4.67594659
I        9.94014726      13.19152479       0.06472686       0.00131980      -0.00113850       0.01320859      -1.96346635
I        6.83327518      16.36443388      -0.13959549       0.00184916       0.00355629      -0.01395252      -2.00816070
I        6.52632040      13.12377062       3.28193107       0.00673112       0.00676289       0.00133016      -1.89283575
C       10.06795044      16.39932923       3.28481607       0.01018742      -0.00133897       0.01075053      -8.90706078
H       11.00720841      15.87402576       3.09088570       0.01165839       0.00235129       0.00816020      -3.44721241
N        9.95537481      17.65820380       2.91633675       0.01623500       0.00728647       0.00771253      -8.64349926
H       -2.45547858       4.97851845       9.01371756       0.01326965       0.00173966       0.01252019      -3.78583390
H       -4.12403685       4.99074405       9.51603123       0.01226746       0.00037808       0.00142964      -3.76483376
N        9.09045993      15.73454623       3.87108848       0.01371959       0.00703122       0.00582304      -8.72136348
H        8.21928722      16.18775670       4.14118946       0.00866002       0.00265989      -0.00094819      -3.65847831
H        9.20576705      14.76790131       4.15970416       0.00543802      -0.00079008      -0.00194293      -3.78962096
Pb       6.61049143      13.10161712       6.50642002      -0.01202103       0.00683882       0.01054517      -4.63287394
I        9.91555791      13.02110042       6.50056256      -0.00357826       0.00060899       0.01251422      -2.03818600
I        6.49609984      16.35873468       6.64276544       0.00168700       0.00240382       0.01017897      -1.98914243
I        6.19277385      13.24887500       9.75200426      -0.03111555      -0.01214599       0.00306432      -2.01034940
C       10.04751774      16.32790293       9.75146540       0.00638398      -0.00787181      -0.00223766      -8.91598316
H       10.24709778      15.46105884      10.38761541       0.00213295      -0.00415932       0.00316580      -3.44275224
N       10.28246802      17.53262713      10.23498672       0.00424239      -0.00310868       0.00091027      -8.73713162
H       10.65040358      17.67129226      11.17182789       0.00061364      -0.00548356      -0.00115641      -3.78611421
H       10.14795015      18.35874455       9.65320722       0.01087505      -0.00730538      -0.00455740      -3.65462936
N        9.56797425      16.13157209       8.54049372       0.01592015      -0.00971972      -0.00078515      -8.63787570
H        9.39336977      16.92053168       7.91385786       0.02348461      -0.01133482      -0.00652226      -3.72512038
H        9.44291346      15.19607016       8.15642548       0.02478131      -0.01122029      -0.00177524      -3.82353182
Pb       6.62351720      13.14413573      13.01366327      -0.01189904       0.00465636      -0.00680009      -4.64618194
I        9.86064707      13.10734412      13.00892707      -0.00328179       0.01081419      -0.01438691      -1.97310752
I        6.77328465      16.35190576      12.93883552      -0.00134434       0.00710563      -0.00671516      -1.93304037
I        6.61637745      13.01526370      16.25277758       0.00475679       0.00887284       0.00202602      -1.97644232
C        9.96801642      16.44300327      16.24027862      -0.00600341       0.01417108      -0.00278397      -8.90266532
H       10.53156024      17.18901854      16.80759839      -0.00514379       0.01277793      -0.00410969      -3.43676945
N        9.07667528      15.71240103      16.87767705      -0.01048823       0.01575930       0.00469592      -8.66551476
H        8.93733465      15.81164001      17.87797086      -0.00422010       0.01576911      -0.00010292      -3.77770377
H        8.52616246      14.98391284      16.41353656      -0.00659412       0.01388523       0.00367037      -3.73636107
N       10.19575314      16.32910123      14.94619124      -0.01036214       0.00866009      -0.00039368      -8.64143631
H        9.80225254      15.56059976      14.39715411      -0.01189529       0.00593240       0.00449926      -3.73239175
H       10.89676759      16.90225315      14.48175424      -0.00807347       0.00347723      -0.00438440      -3.80123921
Pb       6.66529606      13.10549425      19.50711229      -0.00269562       0.01126133       0.00502522      -4.65389275
I       -3.14448464       6.91780676       6.68613752      -0.00439503       0.01244471       0.00788655      -1.98674918
I        6.25971571      16.35648555      19.44902048      -0.01748997      -0.00060887      -0.00187362      -2.02567045
I       -6.46729529       6.32146151       9.76440543       0.00587852      -0.02048702       0.00550921      -2.05775594
C       -3.10577164       9.77003828       9.89343229      -0.00611257       0.00556819       0.00529049      -8.92226480
H       -3.35534223       9.99876579      10.93322144       0.00251859       0.01422048       0.01289922      -3.44753986
N       -1.90841400       9.29411915       9.62176608       0.00292763       0.01059551       0.01331096      -8.65300648
H       -1.21573056       9.18264568      10.36213654       0.00391850       0.02546028       0.01264581      -3.82111469
H       -1.60352481       9.12237927       8.66127843       0.00113238       0.01239606       0.01510172      -3.72423220
N       -4.03055320       9.96519743       8.97461977       0.00321327      -0.01507870       0.02389896      -8.71025811
H       -3.86176586       9.73342576       7.99834441      -0.00488061      -0.02697277       0.01788483      -3.64297947
H       -4.90820525      10.42676524       9.20161526      -0.00589642      -0.01078812       0.01329840      -3.81349016
Pb       6.79069054      19.62820309      12.97540463      -0.00419313       0.00784192       0.00497853      -4.64248251
I       10.01457232      19.84535926      13.15087296      -0.00255627       0.01740387      -0.01571537      -1.95956651
I        6.77538623      22.88363714      12.97378046      -0.02259951       0.00811350      -0.00622912      -1.90780891
I        6.66914774      19.84279524      16.24383713      -0.00604662       0.01011074       0.00139615      -2.00243780
C       10.18356827      22.92981268      16.22353917       0.02048438       0.00982809      -0.00896971      -8.91709089
H       11.08723276      22.64993873      15.67381883       0.01874320       0.00316721      -0.00766430      -3.45462860
N        9.55837160      22.00255950      16.91748964       0.02197714       0.00260603       0.00102273      -8.70257667
H        9.90722546      21.04957651      16.94646562       0.02326822       0.01005724       0.00369148      -3.74280480
H        8.74575417      22.21947010      17.50160698       0.02160259       0.01054002      -0.00478779      -3.74658652
N        9.77460933      24.18123438      16.15745964       0.01740161      -0.00075210      -0.01170198      -8.69762058
H       21.84958074      18.14078264       3.54931706       0.01489686       0.00179440      -0.01507092      -3.70413929
H       10.05409291       5.33947235       9.10938935       0.01465328       0.00231585      -0.01757366      -3.77465765
Pb       6.74367277      19.59628353      19.46214745      -0.00113122      -0.00620932      -0.00060036      -4.66348283
I        9.99280726      19.35827326      19.59581670      -0.00832202      -0.00994883      -0.00111104      -1.96311472
I       19.90629875      16.46925308       6.52139787       0.01166828       0.00241502      -0.00238475      -2.00351955
I       19.63198312      13.09256893       9.73403417      -0.00541190      -0.00356792       0.00016071      -2.05457586
C        9.88722329       9.87645059      -3.36716321      -0.00036475      -0.00132543      -0.01844677      -8.90879622
H        9.63363607      10.16962188      -4.38878190      -0.01142817       0.00825138      -0.01263951      -3.43951376
N       -3.50250210      15.06643502      10.09867437       0.00840296      -0.00505470      -0.02565425      -8.65932059
H       -4.06596313      14.45213959       9.51743278      -0.00137577       0.00007417      -0.02369883      -3.78583112
H       -3.29766206      14.73266045      11.04489041      -0.00239441      -0.00254752      -0.02248626      -3.73722000
N       10.59992836      10.70741211      -2.63367230       0.00575723      -0.00433113      -0.01770657      -8.67917976
H       10.93194490      10.45694340      -1.70059164       0.01270180      -0.00964567      -0.02265163      -3.70847714
H       10.95818545      11.57901794      -3.01619817      -0.00875905       0.00303501      -0.01084813      -3.78686676
Pb      13.22440898      13.18181528       0.04339976      -0.00729156       0.00496264       0.00814512      -4.63648103
I        3.50541695      19.30313962      12.99144058      -0.00182709      -0.00261171      -0.00393164      -2.02469543
I       13.24810911      16.41579629       0.12926930      -0.00190536       0.01083718       0.00612990      -1.97166486
I       13.10972012      13.33448336       3.32195095      -0.00715604       0.00715602       0.00844894      -2.02746898
C       16.46344000      16.48553541       3.25612858      -0.00574486       0.00883405       0.00123105      -8.88712537
H       15.59802964      17.13842456       3.40507236       0.00047109       0.00607578       0.00092677      -3.46673725
N       17.65743394      17.03254082       3.13342436       0.00354681       0.00134937      -0.00094404      -8.69965665
H       17.81005549      18.03733743       3.19010282      -0.00208829       0.00200817      -0.00010089      -3.79709703
H       18.46427535      16.46142499       2.88416948      -0.00483282       0.00449679      -0.00478949      -3.66126783
N       16.27898476      15.18306000       3.20497214      -0.00448518       0.00098033       0.00069024      -8.61166614
H       17.08409845      14.55433183       3.14205408      -0.00980603       0.00648040       0.00157159      -3.73042668
H       15.35167701      14.76135325       3.29250510      -0.00835487       0.01131799       0.00040652      -3.85871471
Pb      13.23111925      13.18572640       6.60673997      -0.00681971       0.01007354       0.00301144      -4.66881138
I       16.47028331      13.33923136       6.57876098      -0.00380142       0.00591621      -0.00663214      -1.96062682
I       13.34943569      16.43405800       6.70209502       0.00604195       0.00719627       0.03643031      -1.89432666
I       13.08446335      13.16060922       9.82324048       0.00845391      -0.00439390       0.01123815      -1.95623180
C       16.52231561      16.44560314       9.66128715       0.00353264      -0.00798804      -0.01512598      -8.91527330
H       16.09556848      15.83283547       8.86171540       0.00208577      -0.00257750      -0.01914224      -3.44522939
N       15.71471282      17.20480499      10.37104766      -0.00169375      -0.00914019      -0.01363448      -8.65672354
H       14.71828513      17.22468376      10.18432115       0.00206850      -0.00558179      -0.01794438      -3.74189596
H       16.05774965      17.82599493      11.11361130       0.00330799      -0.00679175      -0.01773137      -3.77488415
N       17.82274781      16.38745465       9.87214411      -0.00128407      -0.00955676      -0.01112947      -8.67509265
H       18.27540916      16.89866736      10.63050946      -0.00084063      -0.00325910      -0.01390249      -3.71120142
H       18.42184467      15.80396428       9.29556009       0.00269907      -0.00200899      -0.01542545      -3.79307220
Pb      13.08927226      13.18088689      13.04114084      -0.00188624       0.00533364       0.00873132      -4.67462193
I        3.27775015       6.57113659       0.04431261      -0.00820559       0.01016642       0.01951536      -1.99999605
I       13.15072396      16.47843370      12.85307787      -0.01018638       0.01163689      -0.01195544      -2.03646176
I       -0.21343486       6.55354502       3.28603712      -0.01340082      -0.00296338       0.00877165      -1.96781642
C        3.38425680       9.71567289       3.20979871      -0.00689589      -0.01598925      -0.01265718      -8.90972516
H        3.52739287       8.71353415       2.79652783       0.00387673      -0.00857882      -0.01681334      -3.43878656
N        4.19694513      10.12557453       4.16044749      -0.00678369      -0.01163323      -0.00498798      -8.65921501
H        4.95549527       9.53938800       4.50151567      -0.00402185      -0.00851076      -0.01223655      -3.79078707
H        4.11254239      11.05668024       4.57586793      -0.01769967      -0.01828047      -0.00292355      -3.74479132
N        2.40369589      10.45866689       2.73460008      -0.01233253      -0.01714280      -0.00295360      -8.67994295
H        2.19392997      11.38044972       3.11750648      -0.01838278      -0.02358119       0.00040200      -3.66581811
H        1.81043329      10.13590640       1.97157824      -0.00791718      -0.01567306      -0.00944104      -3.82936679
Pb      13.23171873      19.82528085      13.08197181      -0.00121634       0.00015217      -0.00186670      -4.65282076
I       16.53084759      19.66276079      12.97019063      -0.00505002      -0.00608825      -0.00841635      -2.00213722
I       13.30426284      22.96337551      13.23045843      -0.01200471       0.01363368       0.01352348      -1.95104846
I       12.98136618      19.82821174      16.31011302       0.00003364      -0.00242522       0.00389232      -2.00551842
C        3.40144377      16.23686800       3.21818804      -0.01180255      -0.00898852      -0.00849306      -8.91153179
H        2.67223324      15.55897147       3.67058206      -0.01221341      -0.00936770      -0.00473340      -3.43637901
N        4.05420162      17.07186087       3.99957630      -0.01591378      -0.00568926       0.00008481      -8.63689317
H        3.90528762      17.08705992       5.00401890      -0.01587716      -0.00453697      -0.00635905      -3.77632961
H        4.76416870      17.71627593       3.63573455      -0.00944726      -0.01217922      -0.00454896      -3.76838110
N       16.70745343      22.84910215      14.93267810      -0.00999201      -0.01084928      -0.00072029      -8.65907585
H       17.36740921      23.46385550      14.45689313      -0.00719498      -0.00849181      -0.00228593      -3.71004806
H       16.17867289      22.20569126      14.34923309      -0.00001900      -0.01585292      -0.00382840      -3.80749419
Cs       3.43294946      16.37325448       9.83398731      -0.00472789       0.00491963       0.00747574      -3.67647625
