233
Lattice="-12.957396986651146 6.351727325886291 13.017959588757243 13.11604327292129 6.668741413988977 13.017959588757243 13.195366416056363 13.17897578392661 -6.508979794378622" Properties=species:S:1:pos:R:3:forces:R:3:energies:R:1 energy=-1064.324905511833 stress="-0.0014129327531725532 -0.0011984269139060724 2.3505434537401384e-08 -0.0011984269139060724 -0.0013504438458314567 2.952497305290815e-08 2.3505434537401384e-08 2.952497305290815e-08 -0.0016316558418835747" free_energy=-1064.324905511833 pbc="T T T"
Pb       6.80912516      19.56046435       6.55102772      -0.01570566      -0.02836853      -0.00399856      -4.63203698
I       10.04289367      19.49391014       6.51219325       0.00115214      -0.02767501       0.00622484      -1.87407042
I       -6.22834519       9.62591678      13.02387315       0.01622164      -0.00875089       0.01658781      -1.87304610
I        6.38757381      19.49915940       9.76366229      -0.00500465       0.00108100       0.00037813      -2.13085184
C       -3.12754920       9.73109721      16.27236654      -0.01264039      -0.01207010      -0.00008888      -8.93061120
H       -3.75404343      10.62566300      16.27253638      -0.01351730      -0.00541192      -0.00000500      -3.43563080
N       -3.71053275       8.54610204      16.27240918       0.01176826       0.00504341       0.00016460      -8.76100809
H       -4.71926776       8.44092157      16.27244943      -0.01473730       0.00497676      -0.00005946      -3.75598374
H       10.04029143      20.87232789       9.76347288      -0.00548197      -0.00134913      -0.00013729      -3.64246613
N       -1.81973643       9.87021732      16.27200854      -0.01077817       0.00154621       0.00027908      -8.57757974
H       -1.20701927       9.05118797      16.27277118      -0.00477954       0.00820859       0.00013316      -3.74719004
H       -1.37563584      10.78990751      16.27245350      -0.02267295       0.01100345      -0.00085277      -3.87717065
Pb       0.25812903      19.49108852       6.50143344       0.02373953      -0.03056170       0.01217170      -4.63401125
I        3.52053181      19.34835958       6.58127633      -0.00125245      -0.02384730       0.01294616      -1.91388032
I       13.32822707       9.86264244      13.01993524       0.01990091      -0.00346147       0.00275439      -1.87159031
I       12.98153791      13.19262482      -3.25427757      -0.01251150       0.01458155       0.00066315      -2.15561095
C        3.31919664       3.30473468       3.25449206       0.01378190       0.00903122       0.00003966      -8.92077663
H        2.69441191       4.20082022       3.25449120       0.00181409      -0.00269647       0.00000754      -3.43539690
N        2.73485576       2.12252628       3.25452119      -0.01402617      -0.01121821       0.00005067      -8.70006107
H        1.72461608       2.01659373       3.25443911       0.01007780       0.01998092      -0.00015735      -3.78632627
H        3.52418372      20.79672091       9.76346966       0.00417935       0.00467780       0.00001844      -3.66374968
N        4.62867167       3.43922629       3.25454241      -0.00342994       0.00273272       0.00009986      -8.60215233
H       -7.72287791       8.96853828      16.27240049       0.00738838      -0.00183055      -0.00014486      -3.71403548
H        5.07594731       4.35745749       3.25447936      -0.01352146       0.00133244      -0.00000403      -3.88175374
Pb       0.12185868       6.45072784       6.50918930       0.00713228      -0.01363242       0.00032756      -4.65385369
I        3.37230244       6.39562877       6.50868674       0.00358212      -0.02173982      -0.00010282      -1.86881411
I        0.29368039       9.71304739       6.51171451       0.02370773      -0.00455481       0.00492200      -1.87339404
I       -0.18914158       6.56446333       9.76395128      -0.00956723       0.00431967       0.00144467      -2.14998442
C        3.39683950       9.81509314       9.76346179       0.02852821       0.01176983      -0.00000403      -8.92254114
H        2.76784914      10.70852603       9.76347672      -0.00644576       0.00312532       0.00002480      -3.43302045
N        2.81459402       8.63137135       9.76356417       0.01287332      -0.00595284       0.00009022      -8.71720788
H        1.80463555       8.52511606       9.76352058      -0.00105320       0.00813039       0.00016626      -3.78852350
H        3.36645149       7.77616352       9.76329413       0.00809347       0.01253741      -0.00049690      -3.64896528
N        4.70554504       9.95582347       9.76340025      -0.03538868      -0.00194383      -0.00016840      -8.59301353
H        5.31644516       9.13563867       9.76351233       0.00585867       0.01758332       0.00016529      -3.74576125
H        5.14786002      10.87578899       9.76348486      -0.01520107       0.02531728       0.00001821      -3.86164377
Pb      13.32277257      19.62285610       6.50891773       0.00552332      -0.01718217       0.00015615      -4.65259678
I       16.56828552      19.57592311       6.50870996       0.00032212      -0.02164829      -0.00045047      -1.87306108
I        0.29382775       9.71421200      13.01482913       0.02395024      -0.00604627      -0.00548722      -1.87181079
I       13.00555637      19.74065768       9.76227298      -0.00710728       0.00187464       0.00216929      -2.15098124
C        3.39503908       9.81307121      16.27309376      -0.00224566       0.00272525       0.00098649      -8.92879221
H        2.76774396      10.70735410      16.27445129      -0.00616328      -0.00119323       0.00236399      -3.43269267
N        2.81160814       8.62970008      16.27254154       0.00162705       0.00068388       0.00039925      -8.71696333
H        1.80150883       8.52378673      16.27310779       0.00154799       0.00831358       0.00096377      -3.78946764
H       16.55875790      20.95354571       9.76355803       0.00769765       0.00544474      -0.00023943      -3.64840721
N        4.70321169       9.95145784      16.27147333      -0.00476015       0.00620283       0.00001352      -8.57547391
H        5.31440893       9.13139255      16.27292627       0.00078465       0.00950688      -0.00003494      -3.74748734
H        5.14810031      10.87070306      16.27463021      -0.01789299       0.01241654       0.00074074      -3.87869225
Pb       0.19013545      12.94962806       6.53672440       0.02103711       0.00653760      -0.00757334      -4.63642022
I        3.44299924      13.00582132       6.58867731       0.00715752       0.00409409       0.02430803      -1.90575373
I        0.44837651      16.22707799       6.58129484       0.02810934      -0.00641582       0.01576620      -1.91266573
I        0.04039809      13.15477729       9.76335596       0.03616017      -0.01185772      -0.00065151      -2.13524006
Pb       0.19048624      12.94868996      12.99010508       0.02087682       0.00443895       0.00726078      -4.63673607
I        3.44292214      13.00590424      12.93818082       0.00697382       0.00436307      -0.02463490      -1.90576615
I        0.44839166      16.22746924      12.94566939       0.02812928      -0.00510282      -0.01572983      -1.91260692
I       -0.10753309      13.07358140      16.26920449      -0.00745842       0.00346112      -0.00561218      -2.14926394
C        3.47461477      16.32349375      16.27543341      -0.00188778       0.00382220       0.00437647      -8.92832671
H        2.84771061      17.21795065      16.27671282      -0.00527396      -0.00177542       0.00089923      -3.43315192
N        2.89138126      15.14000124      16.27454450      -0.00015254      -0.00143752       0.00375287      -8.71699953
H        1.88139763      15.03270779      16.27754124       0.00382468       0.00725818       0.00226706      -3.78797846
H        3.44461618      14.28590070      16.27686364       0.00880179       0.00494311       0.00412602      -3.64433326
N        4.78278494      16.46144762      16.27340482      -0.00297401       0.00615484       0.00345953      -8.57543472
H        5.39307602      15.64052488      16.27673090       0.00045870       0.00910738       0.00234237      -3.74518356
H        5.22730740      17.38096368      16.27655588      -0.01696561       0.01179133       0.00024669      -3.87828657
Pb       0.20267413      12.95930448      19.52152863       0.00466604      -0.01435627      -0.00427281      -4.65592752
I        3.45110193      12.90641958      19.52706995       0.00603173      -0.02138727       0.00045552      -1.87185147
I       13.32828544       9.86833616       6.50913964       0.01840014      -0.00764547       0.00064750      -1.86902167
I       -0.10856758      13.07090850      22.78032520      -0.00703772      -0.00043188      -0.00715255      -2.15106838
C        3.47468247      16.32385078      22.78199774       0.00337923       0.00486862       0.00016236      -8.92959547
H       15.80493920      10.86640589       9.76287143      -0.00554982      -0.00183289       0.00166947      -3.43451474
N        2.89150586      15.14035953      22.78668872       0.00104279      -0.00390344       0.00189792      -8.71801714
H        1.88150758      15.03386749      22.78018489       0.00349448       0.00653000       0.00192277      -3.78932268
H        3.44475463      14.28631492      22.77282560       0.00853709       0.00570117      -0.00886944      -3.64340480
N        4.78266023      16.46202304      22.78191876      -0.00911816       0.00376201      -0.00045586      -8.57644384
H       -7.72199692       8.97324373       9.76247521       0.00161643       0.00898329       0.00087297      -3.74635367
H        5.22700555      17.38138824      22.78027270      -0.01618401       0.01354293      -0.00127900      -3.87995162
Pb       6.63696987       6.53364025       0.00035471       0.00384301      -0.01220448      -0.00016852      -4.65392374
I       -3.06446504      12.82878771      13.01268625       0.00190659      -0.01946374      -0.01618093      -1.87572225
I        6.81103466       9.78619490       0.00021122       0.01827605      -0.00780144       0.00147563      -1.86954273
I        6.32920685       6.63781736       3.25489810      -0.00743942       0.00297768       0.00026645      -2.15052040
C        9.91312836       9.89235652       3.25387860      -0.00582286       0.00072714      -0.00014188      -8.92905356
H        9.28639546      10.78696284       3.25526427      -0.00451776      -0.00145203      -0.00079658      -3.43420348
N        9.32952004       8.70920009       3.25454537       0.00090720       0.00244262      -0.00029867      -8.71812780
H        8.31948322       8.60303978       3.25537803       0.00196789       0.00863925       0.00128110      -3.78941880
H        9.88174193       7.85435878       3.25508554       0.00699450       0.00328939       0.00043205      -3.64724729
N       11.22130446      10.03034549       3.24895483       0.00044565       0.00729189      -0.00286431      -8.57480616
H       11.83204770       9.20978737       3.25936474      -0.00044368       0.00821343       0.00339278      -3.74589067
H       11.66576302      10.94975252       3.25703791      -0.01806634       0.01015086      -0.00008717      -3.87927230
Pb       6.64076970       6.52790760       6.50872913       0.00492887      -0.01520459      -0.00001015      -4.65386371
I        9.88938466       6.47545509       6.50957741       0.00144651      -0.02164846       0.00007849      -1.86982737
I        6.80697015       9.79080616       6.51165194       0.01364799      -0.01073756       0.00725641      -1.87324354
I        6.32887814       6.64380658       9.76348557      -0.00938750       0.00106055      -0.00100001      -2.15069570
C        9.91261204       9.89285159       9.76365581      -0.00092212       0.00353173       0.00017459      -8.93057550
H        9.28535797      10.78715658       9.76346932      -0.00635018      -0.00119867       0.00028759      -3.43224131
N        9.32938400       8.70943512       9.76413357      -0.00025180      -0.00018539      -0.00016889      -8.71572539
H        8.31930204       8.60351758       9.76345366       0.00214875       0.00831975       0.00052511      -3.78953559
H        9.88125564       7.85439978       9.76260299       0.00785529       0.00530508      -0.00093931      -3.64835934
N       11.22059680      10.03164660       9.76399769      -0.00676719       0.00595362      -0.00010013      -8.57623815
H       11.83236988       9.21214050       9.76280290       0.00052390       0.00920376      -0.00072083      -3.74694876
H       11.66464344      10.95117561       9.76320419      -0.01866209       0.01289395       0.00022399      -3.87990142
Pb      19.82911225      19.70187532       6.50859172       0.00398799      -0.01740204       0.00011013      -4.65410676
I       23.09020210      19.65497749       6.51177535      -0.00300133      -0.02230677       0.00482941      -1.87499158
I        6.80717953       9.79081016      13.01501110       0.01325879      -0.00951803      -0.00808115      -1.87153782
I       19.52627701      19.82012977       9.76247608      -0.00814507       0.00178427       0.00532318      -2.15105249
C        9.91335707       9.89236010      16.27234168       0.00135466      -0.00061249      -0.00000740      -8.92600661
H        9.28688082      10.78703583      16.27249851      -0.00264949      -0.00192698       0.00003837      -3.43486985
N        9.32981699       8.70911560      16.27210200       0.00242333       0.00054536       0.00013148      -8.72152453
H        8.31977912       8.60292386      16.27276784       0.00179565       0.00702874       0.00026198      -3.79052205
H        9.96088278      14.36456287      -3.25452145       0.00569096       0.00123272      -0.00029351      -3.63960068
N       -1.89410755       3.36050441       3.25433624      -0.00509798       0.00151753       0.00010528      -8.59129601
H       -1.28276972       2.54161630       3.25438644       0.00113771       0.00521558      -0.00034540      -3.73432246
H       -1.44987361       4.27995114       3.25457694      -0.01335089       0.00913527      -0.00007815      -3.87997070
Pb       6.71285518      13.03988396       0.00308219       0.00309138      -0.01384988       0.00669180      -4.65399059
I        9.97562475      12.98596899      -0.00268715      -0.00449693      -0.02221318      -0.00409317      -1.87564227
I        6.88965809      16.29571906      -0.00012073       0.01863803      -0.00719133      -0.00095380      -1.86975270
I        6.40970753      13.15249146       3.26342137      -0.01143201       0.00559270       0.01224008      -2.14989876
C        9.99272138      16.40319402       3.25387455       0.00079379       0.00471891      -0.00097904      -8.92768853
H        9.36597670      17.29783668       3.25228455      -0.00618832      -0.00056209      -0.00312986      -3.43319770
N        9.40917240      15.21959201       3.25725136      -0.00036604      -0.00124876       0.00180474      -8.71558554
H        8.39930709      15.11210954       3.24836353       0.00276226       0.00828404      -0.00695731      -3.78732921
H        9.96158301      14.36487493       3.25537286       0.00771536       0.00573717       0.00307822      -3.64770123
N       11.30079558      16.54141560       3.25421594      -0.00836619       0.00538738       0.00080084      -8.57788299
H       11.91245125      15.72178042       3.25515839      -0.00016604       0.00894996       0.00142543      -3.74715758
H       11.74530030      17.46075321       3.25406175      -0.01782352       0.01347136      -0.00130991      -3.87915230
Pb       6.72813372      13.02655284       6.54808878      -0.00617009       0.00099778      -0.00800401      -4.62766055
I        9.96464840      12.98933819       6.51150802       0.00286398      -0.01592831       0.00564184      -1.87202716
I        6.77812424      16.30070244       6.61836315      -0.01581479      -0.01147392       0.03588814      -1.91249163
I        6.36931079      13.23488291       9.76326780      -0.02262932      -0.00455784      -0.00026794      -2.13865484
C        9.98927957      16.40301126       9.76346864      -0.00399631      -0.00849206       0.00002143      -8.92301990
H        9.36337585      17.29866403       9.76347241      -0.00933367      -0.00052165      -0.00001481      -3.43461575
N        9.40661158      15.21952497       9.76345790       0.02029075       0.01111966       0.00000046      -8.70305348
H        8.39593801      15.10837986       9.76346807      -0.01013498       0.00870008      -0.00001535      -3.80011210
H        9.96165908      14.36636806       9.76350002       0.00191469       0.00402311       0.00009077      -3.64747579
N       11.29748996      16.54069133       9.76349037      -0.01071665       0.00295628      -0.00002493      -8.57455671
H       11.90775553      15.72002281       9.76347787       0.00203665       0.01263074       0.00005411      -3.74739705
H       11.74257371      17.45941674       9.76345503      -0.01489905       0.01711695       0.00001958      -3.87945381
Pb       6.72811963      13.02605242      12.97893421      -0.00618650      -0.00150849       0.00892272      -4.62800905
I        9.96532845      12.98920725      13.01471733       0.00360826      -0.01530391      -0.00587292      -1.87199436
I        6.77810470      16.30087749      12.90853512      -0.01581229      -0.01062001      -0.03602823      -1.91248866
I        6.40936965      13.15260151      16.26259967      -0.01080906       0.00575245      -0.00675399      -2.15007903
C        9.99286665      16.40317515      16.27296517       0.00051407       0.00505671       0.00093208      -8.92789544
H        9.36610790      17.29782568      16.27455786      -0.00600814      -0.00061722       0.00283294      -3.43316663
N        9.40926921      15.21959525      16.26910851      -0.00042488      -0.00149432      -0.00171851      -8.71568199
H        8.39940570      15.11208359      16.27856431       0.00279080       0.00836472       0.00652542      -3.78736554
H        9.96161572      14.36479675      16.27243752       0.00782018       0.00618363      -0.00199360      -3.64777077
N       11.30093085      16.54131422      16.27265256      -0.00759314       0.00557421      -0.00096570      -8.57825522
H       11.91235489      15.72144992      16.27212825       0.00024066       0.00922220      -0.00083075      -3.74703135
H       11.74568169      17.46061815      16.27312799      -0.01780712       0.01326890       0.00192842      -3.87883215
Pb       6.71910221      13.03894251      19.52703344       0.00343375      -0.01471771       0.00086764      -4.65451869
I       -3.14238695       6.31719253       6.50891573      -0.00065764      -0.02029030      -0.00016875      -1.87042455
I        6.88979935      16.29938108      19.52714083       0.01946182      -0.00862807       0.00090056      -1.87009855
I       -6.70796248       6.48130191       9.77325866      -0.00898988      -0.00052599       0.00523854      -2.14957700
C       -3.12196002       9.73752256       9.76352987       0.02000392       0.01387751       0.00001248      -8.92600199
H       -3.75091410      10.63022856       9.76337165      -0.00695906       0.00567841       0.00000643      -3.43441008
N       -3.70344980       8.55346347       9.76392233       0.01275784       0.00067344      -0.00039619      -8.71918840
H       -4.71358523       8.44607015       9.76356672       0.00410473       0.01112396       0.00097107      -3.78755004
H       -3.15204955       7.69790354       9.76305386       0.01395169       0.01512830      -0.00028501      -3.64878471
N       -1.81255729       9.87972854       9.76345931      -0.02574512       0.00063755      -0.00018019      -8.62668554
H       -1.20167821       9.05936767       9.76353513       0.00448604       0.02357498       0.00031868      -3.74462550
H       -1.36920895      10.79734163       9.76347153      -0.01418782       0.03305553      -0.00002200      -3.84251507
Pb       6.80947588      19.55983318      12.97585574      -0.01611879      -0.03073738       0.00304079      -4.63166507
I       10.04149763      19.49378132      13.01478871       0.00167432      -0.02763605      -0.00636336      -1.87455489
I        6.96676189      22.80535004      13.01232850       0.01621527      -0.00910254      -0.01581947      -1.87460188
I        6.48710732      19.65999572      16.26347614      -0.01120545      -0.00145046      -0.01041238      -2.14964653
C       10.07182120      22.91265871      16.27310988      -0.00609738       0.00081728       0.00011025      -8.92912773
H        9.44525702      23.80739323      16.27171980      -0.00487098      -0.00211401       0.00076045      -3.43437457
N        9.48823363      21.72952288      16.27229866       0.00110938       0.00139781       0.00055431      -8.71808738
H        8.47816077      21.62277268      16.27115021       0.00237629       0.00818547      -0.00248675      -3.78939866
H       10.04053147      20.87474659      16.27227014       0.00770430       0.00320804       0.00005963      -3.64701877
N       11.38000462      23.05074324      16.27812814       0.00042875       0.00710983       0.00296039      -8.57460890
H       11.99087065      22.23027551      16.26760430      -0.00075677       0.00807207      -0.00342264      -3.74608398
H       11.82438634      23.97020764      16.26982609      -0.01848241       0.01011049       0.00017392      -3.87921845
Pb       6.79524486      19.54801321      19.52402830       0.00301393      -0.01519466      -0.00742720      -4.65405012
I       10.05290108      19.49804346      19.53225111       0.00089688      -0.01879651       0.01591023      -1.87616883
I       19.92718749      16.45883514       6.50872720       0.01869987      -0.00940173      -0.00120930      -1.86975660
I       19.44747895      13.30919168       9.76413936      -0.00813314       0.00067051      -0.00506014      -2.15134964
C        9.91565514       9.88897478      -3.25449169      -0.01082432       0.00336035      -0.00002878      -8.92282861
H        9.28768439      10.78303312      -3.25447796      -0.00683198      -0.00598053       0.00001895      -3.43230012
N       -3.62597536      15.05734144       9.76342814      -0.01003206      -0.00165831      -0.00005242      -8.72249539
H        8.32118687       8.59959224      -3.25446051       0.01012469       0.00755714      -0.00003892      -3.79121787
H       -3.07445187      14.20276523       9.76345631       0.01429651       0.00321753      -0.00004067      -3.63129332
N       -1.73431827      16.37970417       9.76345630       0.01229513       0.01619672      -0.00000383      -8.56108378
H       -1.11574650      15.56341004       9.76346656       0.00208415       0.00830672      -0.00001681      -3.76027137
H       11.66568050      10.94859881      -3.25448093      -0.02418061       0.00162802       0.00000717      -3.87551179
Pb      13.21528282      13.13859645       0.00750145       0.02433332      -0.03292694      -0.01244473      -4.63366744
I        3.52053600      19.34840138      12.94573004      -0.00134251      -0.02366956      -0.01267026      -1.91366554
I       13.40776451      16.37367833      -0.00170510       0.02002890      -0.00282554      -0.00204129      -1.87320044
I       12.92786534      13.22936708       3.25702350      -0.00734890      -0.00032029       0.00562630      -2.15135612
C       16.51141446      16.48240828       3.25392877       0.00295747       0.00511956      -0.00022029      -8.92939921
H       15.88426374      17.37667549       3.25504866      -0.00548177      -0.00180772      -0.00170461      -3.43452207
N       15.92825484      15.29889960       3.24934517       0.00134134      -0.00402006      -0.00188623      -8.71797816
H       14.91826727      15.19242735       3.25569905       0.00337020       0.00670735      -0.00192623      -3.78925316
H       16.48149402      14.44484640       3.26293799       0.00841785       0.00592050       0.00854341      -3.64341275
N       17.81940797      16.62059458       3.25404065      -0.00872269       0.00400473       0.00037477      -8.57722156
H       18.43075786      15.80055060       3.25545100       0.00160069       0.00927311      -0.00080034      -3.74611143
H       18.26367142      17.53996426       3.25558074      -0.01631661       0.01369227       0.00114098      -3.87960516
Pb      13.24333218      13.11732800       6.51252365       0.00520076      -0.01689670       0.00175384      -4.65425397
I       16.48737132      13.06491846       6.50868568       0.00423431      -0.02106224      -0.00027867      -1.87346723
I       13.40754899      16.37866086       6.50806162       0.01984067      -0.00595898      -0.00110605      -1.86977408
I       12.92545893      13.23119082       9.76396434      -0.00835170       0.00213457       0.00220613      -2.15207254
C       16.51102866      16.48202688       9.76348162      -0.00002786       0.00291565       0.00001810      -8.93055463
H       15.88408292      17.37648850       9.76348339      -0.00594473      -0.00084558       0.00003597      -3.43386729
N       15.92751085      15.29876369       9.76347382       0.00155468       0.00016620      -0.00012724      -8.71677670
H       14.91746746      15.19285879       9.76349322       0.00127023       0.00865359       0.00008569      -3.78982514
H       16.47952908      14.44379444       9.76343650       0.00684360       0.00520571       0.00003281      -3.64818282
N       17.81904204      16.62040042       9.76346208      -0.00732104       0.00508197       0.00001294      -8.57639492
H       18.43049842      15.80059544       9.76349781       0.00074677       0.00909738       0.00000137      -3.74708275
H       18.26346207      17.53970552       9.76345777      -0.01743121       0.01323425       0.00003432      -3.87962900
Pb      13.24271664      13.12556584      13.01801009       0.00585345      -0.01216225       0.00051436      -4.65352814
I        3.37181675       6.39508245       0.00051891       0.00256153      -0.02159602       0.00045498      -1.87171994
I       13.40718136      16.37452068      13.01824608       0.01910732      -0.00640329       0.00088619      -1.87006828
I       -0.18824218       6.56033918       3.25433634      -0.00860961       0.00171310      -0.00003144      -2.15092738
C        3.39509793       9.81304962       3.25383851      -0.00222256       0.00322254      -0.00092408      -8.92848794
H        2.76783344      10.70735562       3.25252843      -0.00588264      -0.00128452      -0.00232430      -3.43266224
N        2.81166301       8.62972619       3.25428113       0.00150490       0.00004400      -0.00043307      -8.71696913
H        1.80156859       8.52382037       3.25386582       0.00161247       0.00842522      -0.00095900      -3.78950100
H        3.36336128       7.77451072       3.25455515       0.00745184       0.00553212       0.00056510      -3.64852074
N        4.70331278       9.95136638       3.25542882      -0.00444255       0.00580693       0.00008681      -8.57608268
H        5.31439287       9.13126923       3.25404604       0.00078229       0.00942231      -0.00003492      -3.74682849
H        5.14823614      10.87057536       3.25237121      -0.01763427       0.01223426      -0.00062779      -3.87871629
Pb      13.32298298      19.62962750      13.01980952       0.00418944      -0.01335986       0.00221739      -4.65330335
I       16.56833281      19.57534879      13.01818081       0.00117597      -0.02189732      -0.00002871      -1.87418392
I       13.48690664      22.88619842      13.01852693       0.01797362      -0.01043627      -0.00064142      -1.86942189
I       13.00832614      19.74279785      16.27450963      -0.00640911       0.00505242       0.00126524      -2.14944164
C        3.47462032      16.32348706       3.25149982      -0.00171974       0.00409233      -0.00443257      -8.92827802
H       15.96375314      23.88668236      16.26816415      -0.00529176      -0.00177047      -0.00096705      -3.43314211
N        2.89138943      15.13998315       3.25226568      -0.00013781      -0.00155649      -0.00376911      -8.71694907
H       14.99744186      21.70145185      16.26733354       0.00395222       0.00734605      -0.00236326      -3.78804844
H        3.44462573      14.28589699       3.25028466       0.00870710       0.00498731      -0.00367858      -3.64436213
N        4.78278963      16.46146791       3.25355841      -0.00298282       0.00639557      -0.00339941      -8.57568527
H        5.39309768      15.64057826       3.25018678       0.00052945       0.00937186      -0.00237075      -3.74518067
H        5.22728301      17.38100654       3.25039176      -0.01692616       0.01203315      -0.00029291      -3.87814803
Cs       3.51016736      16.28248371       9.76347523       0.00532521      -0.02198878       0.00001340      -3.65386465
