12
Lattice="6.518360064893109 0.07925352202567154 3.065343592966855e-17 0.0793231431350724 6.510234369937634 -5.8792361396093124e-18 2.9958518037368005e-17 -1.049336529396011e-16 6.508979794378622" Properties=species:S:1:pos:R:3:forces:R:3:energies:R:1 energy=-55.26169193960946 stress="-0.0013915182634315728 -0.001064471950200507 -5.965312819030296e-18 -0.001064471950200507 -0.0016079677626832769 5.637240290014173e-18 -5.965312819030296e-18 5.637240290014173e-18 -0.002141854915174319" free_energy=-55.26169193960946 pbc="T T T"
Pb       0.03303349      -0.03466239       0.00000000       0.00740963      -0.01975781       0.00000000      -4.66068085
I        3.29284262      -0.07665273       0.00000000      -0.00081165      -0.02790004       0.00000000      -1.86815536
I        0.17338101       3.21340410       0.00000000       0.03092740      -0.01248816       0.00000000      -1.86576926
I       -0.25897850       0.01985334       3.25448990      -0.00257861       0.03391724      -0.00000000      -2.14811444
C        3.32379615       3.29596600       3.25448990      -0.00298340       0.00317648       0.00000000      -8.92869034
H        2.70020438       4.19308790       3.25448990      -0.00522501      -0.00588123       0.00000000      -3.43219234
N        2.73272167       2.11557663       3.25448990       0.00759236       0.00304783      -0.00000000      -8.72251248
H        1.72187651       2.01632585       3.25448990       0.01340162       0.02317966       0.00000000      -3.78364881
H        3.27526645       1.25454030       3.25448990       0.02685959       0.02518522       0.00000000      -3.64942137
N        4.63236717       3.43251159       3.25448990      -0.01457471      -0.00864821      -0.00000000      -8.57460172
H        5.24628123       2.61514865       3.25448990      -0.02136942      -0.01212841       0.00000000      -3.74505886
H        5.07891739       4.35188160       3.25448990      -0.03864781      -0.00170256       0.00000000      -3.88284610
