12
Lattice="6.35 0.0 0.0 0.0 6.35 0.0 0.0 0.0 6.35" Properties=species:S:1:pos:R:3 pbc="T T T"
Pb       0.00000000       0.00000000       0.00000000
I        3.17500000       0.00000000       0.00000000
I        0.00000000       3.17500000       0.00000000
I        0.00000000       0.00000000       3.17500000
C        3.17500000       3.17500000       3.17500000
H        2.54980168       4.06787573       3.17500000
N        2.61291771       1.96961064       3.17500000
H        1.60676107       1.88158334       3.17500000
H        3.19222991       1.14226708       3.17500000
N        4.49993895       3.29091714       3.17500000
H        5.07925115       2.46357357       3.17500000
H        4.92678339       4.20628800       3.17500000
