233
Lattice="-12.957396986651146 6.351727325886291 13.017959588757243 13.11604327292129 6.668741413988977 13.017959588757243 13.195366416056363 13.17897578392661 -6.508979794378622" Properties=species:S:1:pos:R:3:forces:R:3:energies:R:1 energy=-1065.5329792398138 stress="-0.0002121965852167279 8.74582703117367e-05 0.00011392117972484707 8.74582703117367e-05 -0.0004026675885087128 -0.0005466953703896558 0.00011392117972484707 -0.0005466953703896558 -0.00033248940045095576" free_energy=-1065.5329792398138 pbc="T T T"
Pb       6.73354789      19.63880175       6.53639943       0.00163194       0.00220682      -0.00049154      -4.63585863
I       10.01255395      19.85565926       6.61611424       0.00336843       0.03425864      -0.02097537      -1.98844441
I       -6.40161590       9.66489648      13.31700927      -0.01109604       0.00111366       0.00370776      -1.97098447
I        6.67282303      19.37265820       9.73030541       0.02058049      -0.02015500      -0.00062757      -1.97900523
C       -3.15151202       9.65693505      16.12437302      -0.00106191      -0.00639063      -0.01481914      -8.91809175
H       -3.53362576      10.00009950      15.15891611      -0.00186461      -0.01029852      -0.01586131      -3.44710147
N       -3.38018673       8.41104397      16.48648599      -0.00748087      -0.00038348      -0.00980356      -8.66203338
H        9.34021991      20.94555507       9.35020140      -0.00910065      -0.00122529       0.00104058      -3.79215329
H       10.06747572      21.23026901      10.90225723      -0.00184494       0.00191409      -0.00300509      -3.73290339
N       -2.49051187      10.51360313      16.87525199       0.00809199      -0.00349779      -0.01998352      -8.68890119
H       -2.02426598      10.22956323      17.74035340       0.00989638       0.00171394      -0.02633451      -3.74228001
H       -2.34148071      11.47195933      16.57736072       0.00845424      -0.00390163      -0.03208837      -3.74919453
Pb       0.24567898      19.50181956       6.52305686       0.00020361       0.00514968      -0.00288106      -4.63287771
I        3.52300426      19.31755716       6.74834365       0.00409069      -0.01403245       0.01096535      -2.03477476
I       13.45117951       9.88131107      12.73506032       0.01426810       0.00213350      -0.01282850      -1.99685427
I       13.22608000      13.28754756      -3.29044475      -0.00382302       0.01243963      -0.00536791      -1.97238979
C        3.31191600       3.20790623       3.48416526      -0.00631035      -0.01015873       0.02402577      -8.91398950
H        3.17228890       2.70541814       4.44552793      -0.00547037      -0.00372947       0.02096832      -3.45120036
N        2.33802596       3.14950940       2.60160208      -0.00176451      -0.01284849       0.02322410      -8.70463816
H        1.50381993       2.59514431       2.77857765       0.00307741      -0.00517544       0.01800707      -3.80533701
H        2.39312409       3.61817127       1.69777001       0.00199237      -0.00477601       0.01670044      -3.66078929
N        4.43793330       3.85563661       3.26801058       0.00397554      -0.00233613       0.01364529      -8.67995358
H        4.66063694       4.26420990       2.36013219       0.00430996      -0.01634989       0.03004139      -3.69111737
H        5.16995367       3.87469493       3.97308515      -0.00291378      -0.00566960       0.03260349      -3.80874166
Pb       0.17591254       6.45174181       6.46324024       0.00761255       0.00135526      -0.00578597      -4.66291914
I        3.41520978       6.84279578       6.33006818       0.00543902       0.01845745      -0.00382946      -1.98218214
I        0.18159123       9.82037952       6.44723152      -0.00160260       0.00357664      -0.01083644      -2.01618910
I        0.14076644       6.59074163       9.73773697       0.02309056      -0.00614130      -0.00381104      -1.97099859
C        3.38999679       9.71960245       9.86634257       0.01369853      -0.00394504       0.01133135      -8.90581158
H        3.70368376       8.87762700      10.49014277       0.00004791      -0.00325690       0.00623071      -3.46332573
N        2.10756642       9.85072636       9.59624596      -0.00919950       0.01236642      -0.00250925      -8.69904316
H        1.43309734       9.15964984       9.91951094      -0.00141646      -0.00901681       0.01025974      -3.80667610
H        1.74108300      10.64500755       9.07343286       0.00270944      -0.00794077       0.02285000      -3.67364889
N        4.30819481      10.55348416       9.42439844      -0.00474897      -0.00693668       0.01415676      -8.70916523
H        4.07959398      11.31635197       8.78066198       0.00223986      -0.00150266       0.00815130      -3.74198369
H        5.28364632      10.43615889       9.67523324       0.00101811      -0.00080000       0.01767815      -3.72624880
Pb      13.26517336      19.69400706       6.45868765       0.00004442       0.00674361      -0.00340127      -4.66531476
I       16.56095581      20.00287374       6.34146064       0.00199699       0.00181775       0.00800477      -2.01291089
I        0.08262204       9.78661229      12.95344050      -0.00101207       0.00329863       0.00061424      -1.90706676
I       13.23357877      19.40840398       9.76644912      -0.00482462      -0.00148323      -0.00087484      -1.98520470
C        3.42377392       9.82745826      16.35884627       0.01181292       0.00800762       0.00254223      -8.90020708
H        3.18072462      10.33715973      17.29516496       0.00882954       0.00197797       0.01464106      -3.45276746
N        4.18802425      10.45542296      15.48542788       0.00310587       0.00752255       0.02058081      -8.72619202
H        4.58363849      11.36897077      15.69239938       0.01385589       0.00641281       0.02077658      -3.76975087
H        4.53010623       9.99448249      14.64093879       0.01005093       0.01126056       0.00825451      -3.67695007
N        2.93018108       8.62480554      16.14369422      -0.00236483       0.00796070       0.00909202      -8.67866827
H        3.08387531       8.13516836      15.25642230       0.00317282       0.01022489      -0.00035595      -3.75356686
H       15.56349624      21.32578225      10.33351726       0.00572314       0.00826231      -0.00016353      -3.76193881
Pb       0.19507040      13.09938339       6.42754156       0.00552438       0.00539052      -0.00936454      -4.63346540
I        3.46384185      13.23241099       6.85987878       0.00651831       0.00399431       0.01637978      -2.07378260
I        0.40211745      16.30125427       6.77900353      -0.01770984       0.00443585       0.01396045      -2.01094547
I       -0.05767146      13.10612334       9.68081490      -0.00604676      -0.01680247      -0.00801127      -1.98565168
Pb       0.23955485      12.98861598      12.95520728       0.00368460       0.00232834      -0.00706963      -4.63625317
I        3.52566782      13.34677338      12.78006310       0.00713158       0.01880824      -0.02458935      -2.02503636
I        0.39851325      16.31683912      12.80400902      -0.01590423       0.00459116      -0.02596860      -2.03453748
I        0.29927384      13.13016714      16.19761620       0.02245616       0.00096157      -0.00791258      -1.93640675
C        3.32672509      16.23494089      16.24476435       0.00348104      -0.00819749       0.00631250      -8.91666507
H        2.33963834      15.93125784      15.88744066      -0.02050391      -0.02156747       0.01097430      -3.44028712
N        4.37806713      15.91931839      15.51491978      -0.03903924      -0.00357563      -0.01110925      -8.72988566
H        4.28338869      15.34672132      14.67781436      -0.02430826       0.00159799      -0.00957683      -3.82349278
H        5.31591876      16.20522638      15.78101897      -0.01270659       0.01316265      -0.02081316      -3.61152385
N        3.41063100      16.90242487      17.37665722      -0.02888678      -0.02207114      -0.00231005      -8.68004766
H        4.30319598      17.20239655      17.76619836       0.00323843      -0.00788960       0.00074917      -3.69683367
H        2.57926191      17.09038261      17.93341501       0.00160938      -0.02518675       0.00904081      -3.81838035
Pb       0.19487566      13.06032714      19.40461744       0.00275195       0.00346252      -0.00835768      -4.66233372
I        3.48261354      12.86727525      19.37280670       0.00576024       0.01334958      -0.00089362      -1.97975962
I       13.18927655       9.92089893       6.42103222      -0.00509927       0.00294773       0.00270687      -1.95846584
I       -0.07722100      13.02854757      22.73671924      -0.00851412      -0.00017727      -0.00648483      -2.01901803
C        3.38502860      16.30209960      22.85812337      -0.00548779      -0.00112767       0.00618351      -8.89853265
H       15.65756377      10.51891234      10.47457187      -0.01088101      -0.00204330       0.00489197      -3.46010868
N        4.64942900      16.67038302      22.81562274      -0.01092331       0.00104636       0.00365689      -8.68933203
H        4.98196424      17.48198152      23.32825245      -0.01343294       0.01003496       0.00505683      -3.77560102
H        5.31854734      16.19711079      22.20662896      -0.00798190       0.00551057       0.01039316      -3.72256659
N        2.91222167      15.27416953      22.18492086      -0.00972629      -0.00487741       0.01325926      -8.67307172
H        3.49041712      14.72798779      21.54320658      -0.00111934      -0.00231329       0.00449496      -3.70438056
H        1.93487734      14.99900162      22.25768948       0.00136992      -0.00931552       0.01199843      -3.80488459
Pb       6.77376224       6.60068501       0.00027357       0.00975219       0.00200543       0.00194328      -4.66878801
I       -3.00314014      12.87131936      13.17752868       0.00930071      -0.00346137       0.01469878      -1.95649890
I        6.83113184       9.80007220       0.12604327       0.01213070       0.00302082       0.00370850      -1.91477588
I        6.72411079       6.61508661       3.22374152       0.00464937       0.00450396      -0.00105531      -1.97024556
C        9.96824934       9.99572542       3.22751195       0.00383632       0.01292636      -0.00399417      -8.89989805
H       10.58044921      10.65094980       3.85458247       0.00540150       0.02173644      -0.00435227      -3.44123101
N        8.87065016       9.48289498       3.74134011       0.01033238       0.01540479      -0.01135087      -8.60664086
H        8.57517189       9.68912241       4.69452906       0.00315278       0.02631547       0.01085208      -3.83247619
H        8.30257296       8.79391226       3.23736241       0.00763482       0.01682386       0.00995129      -3.74828663
N       10.35394286       9.76504542       1.98700912      -0.00479291       0.00215522       0.01093411      -8.66490317
H        9.82217955       9.14250243       1.37607404       0.00489881       0.00565993       0.00496657      -3.71221714
H       11.23008803      10.12605462       1.61503829       0.01200220       0.00743459      -0.00426959      -3.79960657
Pb       6.66303924       6.59322951       6.51318425       0.00501773       0.00419332      -0.00375022      -4.65612589
I        9.91575717       6.54760046       6.35613745       0.00534486       0.00441467      -0.01633227      -1.90679825
I        6.78052590       9.86409053       6.75566759      -0.00048446       0.00440800       0.00322752      -2.04039797
I        6.68881228       6.57036520       9.72485550       0.01770890      -0.03217724      -0.00206720      -1.92681562
C        9.78236230       9.98364003       9.73717189      -0.01159383       0.01621341       0.00719850      -8.92394547
H        9.13668960      10.83659930       9.50897143      -0.02571312       0.00001578       0.00795715      -3.43093255
N       10.58754446      10.07099345      10.77441523      -0.01169361       0.01051921      -0.00862090      -8.62143976
H       10.59822242      10.90681141      11.35868366      -0.01684159       0.01356160       0.00006534      -3.86507797
H       11.22104796       9.31411279      11.03289403      -0.00037506       0.02051056      -0.01011414      -3.68549557
N        9.72081661       8.92134509       8.96485843      -0.00830418       0.00492430      -0.01696688      -8.66564391
H       10.33526917       8.11755497       9.10052805       0.00562675       0.01921692      -0.01341543      -3.69461636
H        9.05793001       8.87773561       8.19445674      -0.00084779       0.01187804      -0.00257749      -3.83071731
Pb      19.85358653      19.82422775       6.44785852       0.00366047       0.00402933      -0.00385274      -4.67749541
I       23.09563117      19.88148774       6.54750508       0.00286890       0.03806322       0.01315064      -1.94224198
I        6.72546253       9.86823774      12.71276964      -0.02201966       0.00277978      -0.02077271      -1.97553122
I       19.63910282      19.83899261       9.71098064       0.00506774       0.00133360      -0.00279241      -1.97400815
C        9.83861460       9.70427808      16.23445811      -0.00752818      -0.02540830      -0.02619054      -8.94165559
H        9.33480555       8.75241722      16.05115778      -0.01099256      -0.01691384      -0.00336818      -3.43484914
N       -3.18711322       3.46891943       4.45813627      -0.00979268      -0.01561825       0.01621677      -8.73097254
H       -3.60606292       2.94233469       5.21947114      -0.00940768      -0.01900679      -0.00862665      -3.76932528
H       -2.78424017       4.37857928       4.68793778      -0.01453083      -0.02262550      -0.00380189      -3.68505191
N       10.33286379      10.36198738      15.20583057      -0.00159450      -0.01660281       0.02084194      -8.74527058
H       10.87244433      11.22329551      15.32713680      -0.00334251      -0.03059129      -0.00399598      -3.73528213
H       10.22829164      10.00044609      14.26582465      -0.00206590      -0.03298802      -0.01417534      -3.70155970
Pb       6.64648181      13.02386526       0.03482311       0.00246809       0.00136850      -0.00212068      -4.66183326
I       10.00011190      13.22636183      -0.08768058       0.00592247       0.00861988      -0.00142624      -2.04672539
I        6.67218763      16.33315638       0.03153226      -0.01419134       0.00171480      -0.00123407      -1.98265133
I        6.56164867      13.10713810       3.23940921      -0.00809456       0.00351363      -0.00235770      -1.88624110
C       10.02287302      16.37275179       3.30453385       0.00031739      -0.00775638       0.00788524      -8.90588556
H       10.17616533      15.55959117       4.02025016      -0.01494709      -0.00888989       0.00095303      -3.44597119
N       10.32367528      16.17099092       2.03814550       0.01143579      -0.00286220       0.00684773      -8.64321115
H       10.61409966      15.25901907       1.69055629       0.00318214       0.00215391       0.00609467      -3.80827499
H       10.27062587      16.94097995       1.36667280       0.02526097       0.00699543       0.01145586      -3.72767036
N        9.55305030      17.52261794       3.74489190       0.00434786       0.00496550       0.00113913      -8.69122265
H       -3.86292970       5.10476899       9.61135391       0.02091896      -0.00074135       0.01517829      -3.68174949
H        9.33210402      17.66470933       4.72656285      -0.00425211      -0.00790181       0.01076081      -3.80378107
Pb       6.80064537      13.19132929       6.46452366       0.00957728       0.00514827      -0.00678736      -4.64261735
I        9.98312017      13.04911389       6.26300768       0.00605925       0.00127870      -0.02779783      -1.97277458
I        7.10475161      16.38033323       6.56951264       0.02589996       0.00208546      -0.01332636      -1.98786964
I        6.80315346      13.39483459       9.72242195       0.03423169       0.00524244      -0.00216085      -1.96579459
C        9.86600787      16.40768631       9.75685621      -0.03042816      -0.00045839      -0.02703630      -8.92915575
H        8.80250638      16.63900989       9.65605986      -0.00841977       0.00116204       0.00676672      -3.44889713
N       10.42577908      16.54324375      10.94081882       0.00630259       0.00250086       0.02504565      -8.73614920
H        9.87693519      16.84555365      11.74153313      -0.00192586      -0.00081279      -0.00617873      -3.78629779
H       11.41074070      16.33564033      11.10409296      -0.01423910       0.00161427      -0.00907503      -3.66835940
N       10.52211481      16.01997625       8.68237871       0.00284987       0.00383314       0.01874612      -8.73386708
H       11.50923124      15.76337062       8.71707346      -0.03054509       0.00498014      -0.01067611      -3.68965605
H       10.03757679      15.88804992       7.80018968      -0.03270633       0.00539748      -0.01559257      -3.75483218
Pb       6.81240134      13.10258669      12.89124543       0.00616765       0.00436974      -0.00330086      -4.64923236
I       10.05443925      13.14025037      12.82690066       0.00644244      -0.00257323       0.00662055      -1.97978248
I        7.06015038      16.35357859      12.93479288       0.01478905       0.00409384       0.02144605      -1.99019442
I        6.87454948      13.22811904      16.22535055       0.01075883       0.01071918      -0.00161528      -1.96377382
C       10.05871969      16.31589408      16.09962044       0.00442013      -0.01232871      -0.01928725      -8.92112182
H        9.82499315      15.87030002      15.12901049       0.00765673      -0.01890801      -0.00852335      -3.44571714
N       11.31475343      16.58844711      16.38693617       0.00882783       0.00514920      -0.01907283      -8.66148021
H       12.05255640      16.38019769      15.71603392       0.00242494       0.00730143      -0.02571498      -3.80614047
H       11.60904916      16.84555701      17.33360435       0.00867242      -0.00710007      -0.02131024      -3.72907235
N        9.06499784      16.55713059      16.93195939       0.00780493      -0.00749470      -0.00798983      -8.72629762
H        9.19332067      17.15935026      17.74722144       0.00162646       0.00055463      -0.02642102      -3.72004183
H        8.11529467      16.29491478      16.69567518       0.00896257      -0.03407023      -0.00378066      -3.72845264
Pb       6.71525220      13.05303958      19.45606490       0.00393260       0.00150144      -0.00015305      -4.67336815
I       -3.12393714       6.30983829       6.81086462       0.00832391      -0.01219615       0.00185064      -2.01906517
I        6.65914528      16.35881869      19.60837182       0.00787586       0.00373009      -0.00049129      -2.02596650
I       -6.55453070       6.66897684       9.69957740      -0.00313343       0.00074678      -0.00122541      -1.97738184
C       -2.98378565       9.65488153       9.76816499       0.00658913      -0.00797739      -0.00170185      -8.90435270
H       -2.05854106       9.37577914      10.27836060       0.01811899      -0.01733822      -0.01102320      -3.45406378
N       -4.11235583       9.61072659      10.44807836       0.02367263      -0.00534399       0.00225840      -8.72918521
H       -4.14693363       9.28160808      11.40846293       0.02788011      -0.02158876       0.00931588      -3.78393973
H       -4.97069636       9.99869083      10.06119293       0.02100337       0.00853356       0.02553979      -3.66206515
N       -2.92787815      10.02295835       8.50390322       0.01154207      -0.00304441       0.00433043      -8.66779772
H       -3.77416630      10.24341937       7.97917903      -0.00354458       0.00181810       0.00571484      -3.68350612
H       -2.04400304      10.03327118       7.99267409      -0.00195253       0.00068322      -0.00454500      -3.85654161
Pb       6.75461845      19.51371483      12.96925098       0.00313987       0.00138699       0.00020283      -4.64144174
I       10.05003333      19.61619192      13.14650376       0.00464480       0.00783167       0.00678656      -1.97391523
I        6.71050971      22.84262728      13.03376698      -0.00803933       0.00259391       0.00299402      -2.06233058
I        6.58053198      19.44708565      16.23709486      -0.02102382       0.00100357      -0.00153935      -2.00279707
C        9.98944753      22.91691118      16.28272636      -0.00933841       0.00228457       0.00451297      -8.92205296
H        9.02863831      22.78515926      16.78549061      -0.00952824       0.00089413      -0.00002454      -3.43170039
N       11.05966079      23.14601943      17.02147816      -0.01045886       0.00193528      -0.00116484      -8.77355188
H       11.00222710      23.22547883      18.03060917      -0.01091138      -0.00492580       0.00459737      -3.73107021
H       11.95808825      23.36520615      16.59720448      -0.01341145       0.01444902       0.00375955      -3.63741748
N       10.04031534      22.83091807      14.96884581      -0.00753024       0.00375820      -0.00165852      -8.67015859
H       10.92653105      22.89840976      14.45969250      -0.00955079       0.00196710       0.00198403      -3.74340306
H        9.19685549      22.67592299      14.41886022      -0.00870979       0.00390030       0.00083764      -3.81493733
Pb       6.72709294      19.63613165      19.50446621       0.00605060       0.00289630      -0.00180317      -4.66148188
I       10.06218631      19.57963588      19.08424467       0.00711519       0.00496967      -0.02056308      -1.97423987
I       19.75117240      16.52080644       6.78229283       0.00630464       0.00357548       0.02347420      -2.02723739
I       20.07125858      13.13517732       9.72753472       0.01277301      -0.00726242      -0.00071597      -1.99718372
C       10.05529239       9.84807751      -3.18494997       0.01281405      -0.00782177       0.00556700      -8.91676360
H       -1.89808913      16.11263747      10.25757290       0.00533881      -0.01439678       0.02419495      -3.43695221
N       -3.30880790      15.27590792       8.98677205       0.02131880       0.00108920       0.00196874      -8.68249856
H       -2.71843438      14.48098910       8.75813651       0.02017200      -0.00409553       0.00512088      -3.77208390
H       21.85332525      15.65311109       8.52742322       0.02619412       0.00514084      -0.01303109      -3.73260357
N        9.31162848      10.87440723      -2.82955967       0.01525394       0.00058804      -0.00413400      -8.62274232
H       21.48870152      17.69386670       9.81535708       0.02523745       0.00829136      -0.01784993      -3.68744123
H        9.63313593      11.54719129      -2.13162222       0.01269137      -0.00176339       0.00118192      -3.86688697
Pb      13.33840386      13.21372615      -0.04908757       0.00875770       0.00768892      -0.00790397      -4.64090607
I        3.55878637      19.28220123      12.72265924       0.00429979      -0.01390065      -0.02118462      -1.98809166
I       13.64247063      16.46014867      -0.04242986       0.02114045       0.00328602       0.00430572      -1.91382786
I       13.30990128      13.15668677       3.21443003       0.01154910      -0.01501355      -0.00513397      -1.97759205
C       16.33087411      16.46865855       3.28532096      -0.01313344      -0.00568957      -0.00069915      -8.90749801
H       15.34600026      16.81142418       3.61600662      -0.02028414       0.00320585      -0.00047836      -3.45474864
N       17.22737659      17.37515717       2.94781567      -0.01614894       0.00202308       0.00534157      -8.76116913
H        3.82798067       5.18614954       9.52046416      -0.01211894      -0.00094311       0.01198783      -3.70843994
H       18.11376877      17.11968988       2.51404970      -0.01650869      -0.00081679       0.00312538      -3.68636457
N       16.56584600      15.17430092       3.24822153      -0.03607137       0.00398154       0.00152736      -8.65086980
H       17.50303264      14.78566539       3.09148105      -0.01474509      -0.00453483       0.00877742      -3.75753773
H       15.82814547      14.51099650       3.48178500      -0.02165609       0.00540921      -0.00951135      -3.80054143
Pb      13.24673688      13.22044989       6.49441574       0.00579960       0.00687959      -0.00379146      -4.66058781
I       16.50149858      13.27194350       6.74158350       0.00655810      -0.00981868       0.00775851      -1.90340868
I       13.33318024      16.44624692       6.23976135      -0.01848979       0.00221067      -0.01603363      -1.93571064
I       13.23304874      13.47469017       9.74657553       0.00804987       0.03562829      -0.00363374      -1.95853576
C       16.38307008      16.47178518       9.84147791      -0.00805269      -0.00822768       0.01004366      -8.91723535
H       15.42878801      16.18506808      10.29163365      -0.00391399      -0.00541530       0.00823321      -3.44492496
N       16.47826263      17.65527823       9.27339656      -0.00924135      -0.00379858       0.00329479      -8.65800982
H       15.67498455      18.28521613       9.27008913      -0.00730490      -0.00915904       0.00452983      -3.84081030
H       17.37454302      18.03532724       8.96606885      -0.00790953      -0.00624912       0.00458346      -3.70061599
N       17.38240684      15.61307245       9.89172870       0.00125526      -0.00030337       0.00491859      -8.73405884
H       18.23138065      15.75806872       9.34525005      -0.00939919      -0.00631445       0.00874468      -3.68407530
H       17.27730472      14.71687557      10.35776852      -0.00406764      -0.00558003       0.01520736      -3.76779830
Pb      13.28277974      13.13478548      12.95681777       0.00818626       0.00194555      -0.00281006      -4.65455498
I        3.45368113       6.31573143      -0.18914105       0.00749115       0.00604305      -0.00172197      -2.05067913
I       13.45911374      16.35010212      13.26387395       0.00067909       0.00224206       0.00199889      -2.04875594
I       -0.21567596       6.30248775       3.23005004       0.00103822      -0.01948714      -0.00515169      -1.95308827
C        3.38614625       9.80212726       3.21448199       0.00189196      -0.00282563      -0.00384205      -8.91684816
H        3.04987485      10.50104045       2.44385687       0.01395650       0.00702307      -0.00841068      -3.45407808
N        3.77658032      10.28694185       4.37721321      -0.00502719       0.00407378       0.00010747      -8.73935365
H        3.76806522      11.28419081       4.57078994       0.00391593      -0.00166773      -0.00209423      -3.75217631
H        4.10707040       9.67161355       5.12008033      -0.01903799      -0.00404462       0.00222345      -3.68121566
N        3.38083446       8.51140541       2.94548854      -0.01142939       0.01007009      -0.01339846      -8.69822854
H        3.66166777       7.83117942       3.65397678      -0.01323010      -0.00173160       0.00107368      -3.70621477
H        3.12677805       8.15497615       2.02663328       0.00121979       0.00640110      -0.00342818      -3.78694985
Pb      13.30365066      19.61152843      13.05031035       0.00619191       0.00285514      -0.00149388      -4.65947423
I       16.55589468      19.45499411      12.88395103       0.00524552       0.00237402      -0.01957205      -1.97065728
I       13.25697222      22.87601222      12.97795924      -0.00505115       0.00198525      -0.01246586      -2.02882691
I       13.75794195      19.92269038      16.24326504       0.04388393       0.01645603      -0.00432894      -1.96202037
C        3.37563277      16.31373395       3.25526103      -0.01083285       0.01147413       0.01062875      -8.90366617
H        2.61214430      15.88225356       3.90971655      -0.01711799       0.00497692      -0.00228575      -3.43479719
N        3.99237348      17.40871488       3.64928195      -0.00118417      -0.02118488      -0.04050424      -8.59543490
H        3.77877827      17.84862001       4.54585154      -0.01792656       0.01100961       0.02746949      -3.86859332
H       -8.47716548       4.68168166       9.59679922      -0.01517631      -0.00507145       0.01365342      -3.71003117
N       16.73798602      22.38864182      15.12491147       0.01327618       0.02487558       0.00294371      -8.64801113
H       17.50512190      22.69193273      14.51504591      -0.01163745      -0.00904988       0.01188062      -3.75373761
H       16.25566843      21.53186484      14.86145386      -0.01889580      -0.01724607       0.00038883      -3.79709879
Cs       3.48459470      16.35123250       9.77912658       0.00056303      -0.00007948      -0.00591693      -3.67579306
