233
Lattice="-12.957396986651146 6.351727325886291 13.017959588757243 13.11604327292129 6.668741413988977 13.017959588757243 13.195366416056363 13.17897578392661 -6.508979794378622" Properties=species:S:1:pos:R:3 pbc="T T T"
Pb      -6.45747265       6.34591153      13.09928930
I       -3.15936740       5.99682254      12.90447650
I       -6.19883469       9.61033558      13.27132689
I        6.79762064      19.30002971       9.79053758
C       -3.14949185       9.59402004      16.11496236
H       -3.20163119       8.89092614      15.27902563
N       -4.18219901      10.37699531      16.34132872
H       -4.99717586      10.34603827      15.73180044
H       -4.17536736      11.06606154      17.09506295
N       -2.05331460       9.62125808      16.84409431
H       -1.95397046      10.25724030      17.63502371
H       -1.31482089       8.93296840      16.69054016
Pb       0.28044199      19.51706869       6.50035928
I        3.48868185      19.34997424       6.59777103
I       13.52232444       9.92547748      12.79796138
I       13.19903303      13.79814153      -3.23898898
C        3.54496128       3.42214096       3.32915899
H        4.48881737       3.81012024       3.72167010
N        3.55251522       2.81828362       2.15876281
H       -8.54700452       9.11830061      14.62696649
H        2.69538014       2.49369049       1.71150697
N        2.46107515       3.56442807       4.06359295
H        1.57921416       3.12346797       3.80550007
H        2.48105003       4.11584630       4.91752313
Pb       0.03971814       6.55682253       6.45309558
I        3.33093645       6.60996248       6.26013139
I        0.13602801       9.78483388       6.27660161
I        0.31093765       6.74535095       9.80270478
C        3.66345641       9.79618296       9.82069300
H        4.58129078      10.22982155       9.41319197
N        3.44911167       9.87732367      11.12020236
H        4.12913569      10.31594176      11.73594851
H        2.54702710       9.62950668      11.53284103
N        2.81931202       9.22196659       8.98972294
H        2.03568762       8.64864159       9.32814363
H        3.02355694       9.16401010       7.99713363
Pb       0.18070973       6.43630761      13.04048467
I        3.34010950       6.53426646      13.46562691
I        0.20133703       9.76506334      13.09363416
I       13.13140861      19.77981980       9.75133383
C        3.47434402       9.72852152      16.08178954
H        3.70312943       9.42385234      15.05745778
N        4.46174704       9.77194019      16.95091384
H        5.39400078       9.46091662      16.69675232
H        4.33942267      10.14608667      17.88876516
N        2.23116806      10.03773336      16.38271094
H        1.91747109      10.16821573      17.34964791
H        1.51411690      10.03727147      15.65981250
Pb       0.22756259      13.03610897       6.54479516
I        3.47069943      13.05026848       7.06617449
I        0.35278496      16.29407187       6.81889527
I        0.10147632      12.89148001       9.77998341
Pb       0.21041079      13.01364481      12.99275089
I        3.50177132      13.24910751      12.70721062
I        0.35014657      16.30575794      12.51915518
I        0.27482303      13.16701054      16.28373691
C        3.31374853      16.49044331      16.35590508
H        2.68991510      17.37648321      16.51129648
N        4.21976497      16.19451625      17.26003252
H        4.34331202      16.78639272      18.07908181
H        4.87063153      15.41209391      17.12794180
N        3.10879769      15.77380216      15.27109779
H        3.61915356      14.90962104      15.09019854
H        2.39134016      16.02568673      14.59467561
Pb       0.17831871      13.05769929      19.49485276
I        3.41740866      13.04466489      19.78277771
I       12.98819639       9.91605043       6.67231423
I       -0.13700667      12.86377706      22.82381059
C        3.59117154      16.20128148      22.49915155
H        4.09834689      16.03267142      21.54525208
N       16.75493073      10.99395722      10.10063410
H       17.39033272      11.68568422       9.70980245
H       16.36709130      11.19422192      11.02383156
N        2.80896078      15.25512690      22.97164272
H       15.19304661       9.05310303      10.78970447
H        2.66864393      14.39401486      22.44996159
Pb       6.69087791       6.63888328       0.11694503
I       -3.02208064      13.16943549      13.26148296
I        6.70753924       9.81909823      -0.08523833
I        6.44373081       6.79939275       3.28512485
C        9.93368089      10.24946605       3.37600908
H       10.12914151      11.22029865       3.84078566
N       10.89167093       9.68995686       2.66867175
H       11.78576765      10.15925748       2.55620504
H       10.76040295       8.79496114       2.19188391
N        8.75074604       9.69968391       3.55892787
H        8.49759308       8.79651793       3.15553716
H        8.04745648      10.14584324       4.14126009
Pb       6.51667019       6.56645622       6.61776351
I        9.85275747       6.24167982       6.33998410
I        6.44975793       9.81416233       6.66136867
I        6.38676443       6.52329874       9.83130976
C       10.03676695       9.69016494       9.78138301
H       10.62466658       8.78915411       9.58086055
N        9.32803142       9.73707251      10.89249847
H        9.34023087       8.96615930      11.55704534
H        8.79255248      10.56836119      11.14261743
N       10.07141649      10.66944559       8.90441538
H        9.48252060      11.49772927       9.00410338
H       10.68722688      10.62290528       8.09252838
Pb       6.54997636       6.63756690      13.14861708
I        9.85053871       6.67933130      13.30368415
I        6.54051655       9.87526384      13.49794779
I       19.86405046      19.74017495       9.87118981
C        9.73788446       9.98969386      16.26953747
H        8.90264575      10.69267840      16.19903116
N       -3.30561399       2.53919220       4.30866383
H        9.18369355      15.76513182      -1.46628547
H       10.61504749      15.00654262      -2.11355142
N       10.61602933       9.96386312      15.29018078
H       -1.70304516       2.65538296       2.29138713
H       10.54631007      10.62465203      14.51587259
Pb       6.76626120      13.01901841       0.06404947
I       10.01844275      13.05418589       0.30934537
I        6.96404239      16.37782710       0.10071237
I        6.51163534      13.26652510       3.38408738
C        9.99172021      16.18090673       3.14598078
H       10.15990783      15.30557851       2.51095634
N        8.82861554      16.29443858       3.75345093
H        8.12514810      15.56078112       3.67690843
H        8.57737170      17.13586322       4.27194610
N       10.95991788      17.06356800       3.26783969
H       10.88055300      17.84886858       3.91504877
H       11.80937655      16.98452699       2.71176575
Pb       6.74318505      13.06369890       6.66585551
I        9.98916511      13.26004191       6.29157068
I        6.42089880      16.27643297       6.68165086
I        7.01728865      12.83544650       9.90260374
C        9.94607256      16.51891892       9.72235327
H        9.20811788      17.32798270       9.69763016
N        9.69769973      15.47400757      10.48339262
H        8.85813875      15.43194516      11.05809366
H       10.34983826      14.69170574      10.53611906
N       11.03195086      16.63614368       8.99008209
H       11.76463809      15.92354455       9.01156619
H       11.17125261      17.44720821       8.39173985
Pb       6.70272000      13.09898467      13.18132526
I        9.97649843      12.92690354      13.15680546
I        6.90655659      16.31009644      12.93753417
I        6.53130647      13.41606692      16.39462399
C        9.84598052      16.38199061      16.21371151
H        8.87553145      16.11293542      15.78660172
N       10.03650213      16.22796118      17.50701936
H        9.28668696      15.90860883      18.11817634
H       10.95570540      16.37449672      17.94001678
N       10.78264127      16.83715543      15.40233232
H       11.65407283      17.22511481      15.76358415
H       10.60373919      16.97334796      14.41308491
Pb       6.79228956      13.12156345      19.69425068
I       -3.14829627       6.43615601       6.64922897
I        7.00900863      16.39204332      19.77937781
I       -6.22713347       6.52014595       9.88262452
C       -3.34237623       9.70683976       9.65797272
H       -4.43058766       9.71604245       9.55812296
N       -2.63602611      10.57224001       8.96179026
H       -3.07173498      11.21944906       8.30651628
H       -1.63640574      10.70234824       9.12098072
N       -2.79360372       8.83196831      10.47848975
H       -1.78504919       8.67675770      10.48825494
H       -3.35920660       8.15406125      10.98414805
Pb       6.76096070      19.56603377      13.00737306
I       10.04573033      19.60924409      12.93766244
I       19.53640089      16.47501998      -0.09523551
I        6.71402048      19.60625892      16.27589674
C        9.90442341      22.73246508      16.25292771
H        9.62137072      21.81703396      16.78119501
N        9.97495170      23.85438962      16.94223061
H       22.65270306      17.54596303       4.89908970
H       10.15770256       5.16253403      10.03527353
N       10.17350249      22.66522500      14.96563550
H       10.31116695      23.51357126      14.40804767
H       10.11693278      21.77815847      14.45816927
Pb       6.82511471      19.63098122      19.43081024
I       10.08278255      19.87343235      19.29753070
I       19.85371877      16.56669519       6.44434318
I       -6.18404012      12.85938325       9.80239953
C       10.01885396       9.78417281      -2.98788611
H       -2.66232884      15.47824645      10.85988201
N       10.78335497      10.82446549      -3.24796683
H       11.62430181      10.99586384      -2.70316962
H       10.56865143      11.47092004      -4.01024966
N        8.93600737       9.49479634      -3.67682485
H       21.74559075      16.72128121       8.54248140
H        8.36755198       8.67747377      -3.45230245
Pb      13.27229733      13.18132966       0.03031759
I        3.53346734      19.25306167      12.73998539
I        0.08121709       3.24173655       6.89390771
I       13.31775281      12.74585733       3.21230651
C       16.15325561      16.44467559       3.26528398
H       15.08336533      16.34474744       3.46580473
N       16.93328529      16.82842402       4.25266874
H       16.54203164      17.03698427       5.16712845
H       17.92740234      17.01066235       4.12316240
N       16.59148532      16.16731107       2.05675380
H       17.57507492      16.25126764       1.78489872
H       15.93578646      15.89376402       1.32869337
Pb      13.28734523      13.15920243       6.48312790
I       16.54066283      12.83057679       6.60561138
I       13.73828729      16.40902848       6.31169107
I       13.06465618      13.50131236       9.73259269
C       16.73557596      16.42964120       9.68696378
H       17.64337410      16.76500014       9.17855984
N       15.76143583      17.29473844       9.87187011
H       15.81501573      18.23125863       9.48107844
H       14.95540781      17.07847907      10.46292116
N       16.66874252      15.17461409      10.08738588
H       15.80544499      14.77712666      10.45657517
H       17.47205376      14.55557326       9.98829817
Pb      13.22163531      13.20063147      13.06933084
I        3.36391935       6.44536765       0.13822356
I       13.34974716      16.44034474      12.75333644
I       -0.01169331       6.47875359       3.25485363
C        3.48176984       9.71284009       3.26821932
H        3.38398247       8.75967255       3.79532415
N        3.37197546       9.72897045       1.95703286
H        3.25665845       8.86350113       1.42812915
H        3.43088314      10.60453796       1.42530355
N        3.69343311      10.80188316       3.98294928
H        3.87368156      11.69744763       3.53374470
H        3.79847662      10.76705664       4.99194387
Pb      13.37204468      19.70802854      13.06777076
I       16.60147622      19.66696782      13.16425495
I       13.67115132      22.96220463      13.11132719
I       13.37586559      19.65590733      16.28246037
C        3.22030561      16.41364867       3.30364313
H       15.36024746      23.39036887      15.93652679
N        4.28892087      16.69360068       2.58687294
H       17.33687333      23.94428670      14.77175031
H        5.19704651      16.29218420       2.80736006
N        3.27079544      15.75508162       4.44515937
H        4.15910797      15.58563182       4.91986001
H        2.42915318      15.62092790       5.00428757
Cs       3.59098894      16.27807644       9.77975399
