233
Lattice="-12.957396986651146 6.351727325886291 13.017959588757243 13.11604327292129 6.668741413988977 13.017959588757243 13.195366416056363 13.17897578392661 -6.508979794378622" Properties=species:S:1:pos:R:3 pbc="T T T"
Pb      -6.42546521       6.36165904      13.01215226
I       -3.19394688       6.69534513      13.10219751
I       -6.79475216       9.61374607      12.98898910
I        6.72891450      19.32924124       9.78542346
C       -2.96632829       9.57877579      16.25417631
H       -2.24308320       8.75832524      16.28567879
N       -2.55128040      10.79515880      16.54838219
H       -1.58926866      10.97484546      16.82262321
H       -3.21114408      11.57397415      16.58041133
N       -4.21000563       9.31188430      15.91155777
H       -4.91140066      10.05473796      15.87868310
H       -4.50987726       8.36610914      15.68779049
Pb       0.35707405      19.60783757       6.68011051
I        3.53164885      19.27027043       6.59196432
I       13.33826868       9.95305963      13.44642486
I       13.55515545      13.08340271      -3.15401893
C        3.34476837       3.45951483       3.26431079
H        3.38027053       4.26894677       2.52909768
N       -9.18435454       8.61912552      15.92408548
H       -8.82646337       8.44622054      14.98841132
H        4.03769313      21.02506950      10.08024153
N        2.85894083       3.71756014       4.46147713
H        2.76203773       2.97548426       5.15701812
H        2.62264087       4.66389060       4.74976588
Pb       0.00592707       6.64814267       6.59936907
I        3.32779240       6.71461742       6.57844916
I        0.20054889       9.80638006       6.48506699
I        0.16874782       6.82222513       9.84466251
C        3.42670081       9.40809259       9.74541715
H        3.21150449       8.40187901       9.37594450
N        3.07742738       9.71926791      10.97439553
H        2.65444309       9.02923270      11.58938833
H        3.23706493      10.65230413      11.36774273
N        4.00597706      10.26064523       8.92173088
H        4.37408706      11.15555936       9.25330499
H        4.30610231       9.96251886       7.99856360
Pb      -0.00167265       6.58321107      13.14383392
I        3.35225291       6.43404707      12.90386092
I        0.16691711       9.80160555      13.42594309
I       13.30890943      19.61723368       9.80858800
C        3.23066786       9.67859159      16.15088134
H        2.37701927       9.88917094      15.50000438
N        3.58501449      10.58366716      17.03566785
H        3.06352323      11.45260020      17.12505405
H        4.34627829      10.41406011      17.70091828
N        3.84925802       8.52425568      16.00562081
H        4.68975920       8.29253792      16.53541073
H        3.57567091       7.87313790      15.27108638
Pb       0.08287331      13.04650564       6.49661608
I        3.44220933      13.49060003       6.22480807
I        0.19076220      16.32354107       6.81756266
I        0.34127055      12.99389211       9.83047810
Pb       0.29013602      13.03169393      13.01603294
I        3.49250783      12.87469121      12.89670085
I        0.64252340      16.27441989      12.91526611
I        0.68487718      13.07744237      16.34598729
C        3.08708632      16.39774979      16.27624077
H        2.08332340      16.08991029      16.58180368
N        3.47926048      17.62321141      16.55110476
H        2.85525587      18.27585439      17.01969757
H        4.43773256      17.94799012      16.38310710
N        3.84765290      15.51715414      15.65776350
H        4.74249574      15.77530578      15.23962637
H        3.49844804      14.58684676      15.44730975
Pb       0.13460449      13.08242911      19.56289919
I        3.43166160      13.08381367      19.78533337
I       12.94819403      10.02152373       6.26865452
I        0.18334230      13.14279200      22.85489369
C        3.61318263      16.21555042      22.88153920
H        4.47601830      15.55220998      22.99639621
N        2.83157987      16.05059690      21.83359355
H        3.00237018      15.29329134      21.16859651
H       14.96376622      10.28026332       8.67201733
N       16.36508499      10.78820550      10.77382707
H       15.59439915      11.46016970      10.67916091
H       16.98727169      10.87949481      11.57518520
Pb       6.55399051       6.50482911       0.10959471
I       -3.01700697      13.10564100      12.87480000
I        6.46314039       9.72847523       0.01479185
I        7.08395675       6.34088641       3.28515389
C        9.84529274       9.95671473       3.14818113
H        8.95681237       9.85328632       2.51951945
N       10.90321743       9.22504011       2.85534040
H       10.89386001       8.59581358       2.05675514
H       11.74964465       9.27064918       3.42105638
N        9.80827350      10.79794826       4.15797262
H       10.60239506      10.90821543       4.79103654
H        8.97799634      11.36242052       4.32785940
Pb       6.68317075       6.51257878       6.57658836
I        9.89012168       6.66983026       6.67564993
I        6.85584396       9.84240957       6.48570484
I        6.73753245       6.71058321       9.77695946
C        9.90681641       9.68301103       9.61372486
H        9.92324239       8.87353558       8.87652734
N       10.88843787       9.75461415      10.48662533
H       11.64008021       9.06685730      10.47974719
H       10.90491948      10.47642681      11.21037303
N        8.90472595      10.53538919       9.57555656
H        8.84534744      11.31111585      10.23561188
H        8.17285364      10.44475097       8.87207517
Pb       6.75612882       6.57234739      12.93736724
I        9.91558141       6.61294876      13.15332319
I        6.64039717       9.76973179      13.07807585
I       20.12811580      19.62724918       9.79289920
C        9.88483139       9.78520205      16.54527682
H       -2.56502848       3.82676548       4.02539955
N        8.68226376      10.18510293      16.18317234
H        8.34699490      11.13495779      16.35063266
H        8.05785084       9.57656286      15.65318341
N       10.31438124       8.55584973      16.34161474
H       22.91077298      21.02951023       9.40263379
H       11.33702856      14.77530580      -2.93480449
Pb       6.71804993      12.92687757      -0.02426576
I        9.93199920      12.90260087       0.20329755
I        6.43553067      16.22191369      -0.11127198
I        6.76269290      12.80677456       3.28789632
C       10.10104602      16.20034821       3.32530858
H       10.82396596      15.39531928       3.16585491
N        8.83183116      15.97276994       3.05348950
H        8.50643572      15.05250754       2.76588807
H        8.13348466      16.71067089       3.16968825
N       10.54300536      17.35961835       3.77018286
H        9.90429883      18.13009892       3.96702883
H       11.52291869      17.49886496       3.99771366
Pb       6.64628854      13.19318491       6.54194937
I        9.94165570      13.57838820       6.86534618
I        6.74258514      16.33996552       6.59551142
I        6.22449393      13.19818573       9.76435788
C        9.97378847      16.61885429      10.03260772
H       10.10386480      17.21944850      10.93835604
N       10.93766289      16.62484751       9.13758006
H       11.75911818      17.21387281       9.25833589
H       10.87461324      16.06865622       8.28381015
N        8.86625713      15.91877332       9.89961351
H        8.68226104      15.37459701       9.05596978
H        8.13564862      15.95432477      10.60851526
Pb       6.73181048      12.99284495      13.04959039
I        9.95627270      12.82060446      12.63554731
I        6.53410795      16.29167104      12.97515812
I        6.68585767      13.22726121      16.28469043
C        9.70521198      16.63675214      16.27750475
H        8.91463540      17.39209617      16.22525863
N       10.72341164      16.73997090      15.45116016
H       10.77337073      17.50427586      14.77900587
H       11.49402390      16.07015920      15.46914187
N        9.58362743      15.66733581      17.15869872
H       10.29142809      14.93816622      17.25293896
H        8.78052351      15.62189181      17.78248611
Pb       6.67064891      12.99189356      19.58411878
I       -3.20385078       6.46229344       6.71005232
I        6.55157987      16.24024507      19.56963646
I       -6.18967882       6.11366037       9.79641900
C       -3.00576966       9.45054326       9.64734948
H       -2.93393157       8.40103366       9.34980134
N       -2.01417490       9.97940330      10.33352085
H       -1.19673666       9.42530902      10.57441971
H       -2.00721607      10.96210564      10.60408227
N       -4.09150881      10.11875335       9.31718801
H       -4.21741965      11.10073915       9.56018849
H       -4.79919278       9.71319047       8.70587980
Pb       6.73578076      19.58678090      12.99309926
I        9.97003018      19.63025884      13.03440930
I       19.79742902      16.47857671       0.03490733
I        6.64090973      19.44672426      16.30387160
C       10.08489474      22.99875493      15.98234276
H       10.53048056      22.97100520      14.98355363
N        8.89821305      22.45978326      16.16291726
H        8.35507720      22.11606859      15.37290368
H        8.44377146      22.46221649      17.08173035
N       10.78215238      23.54913037      16.95721952
H       10.38878462      23.67919008      17.88793924
H       11.67269290      24.00300148      16.77312729
Pb       6.73858360      19.53537395      19.62083203
I       10.02740486      19.49719038      19.62900609
I       20.20860013      16.41730747       6.48485912
I       -6.54295316      12.91814216       9.82981897
C        9.96676707       9.93589884      -3.44131987
H        9.65915650      10.54040771      -4.29922824
N        9.08092901       9.14291350      -2.87798614
H        8.14181241       9.05437027      -3.25306205
H       -3.62845254      14.87575300      10.91954357
N       -1.75130649      16.40230683      10.00838160
H       -1.40581579      15.88917480      10.81882842
H       -1.07843108      16.99469919       9.52790994
Pb      13.15152970      13.18025381       0.12933532
I        3.48161526      19.95396076      12.89374823
I       -0.31373374       3.23293535       6.44886153
I       13.16409367      13.25992705       3.35060201
C       16.40949759      16.21198350       3.21417516
H       16.74565756      15.29621878       2.72095310
N       17.10088311      16.66492257       4.24053166
H       17.90222753      16.15779903       4.60599824
H       16.81190884      17.49869497       4.76227866
N       15.34222386      16.82346681       2.74143935
H       14.96966893      17.67264588       3.17196814
H       14.81674859      16.45142668       1.95026971
Pb      13.21535809      13.30066001       6.61531505
I       16.45862188      13.45151688       6.61730855
I       13.35523525      16.52395907       6.38252085
I       13.53878386      12.89617604       9.86252045
C       16.28420591      16.56843923       9.80158073
H       15.31556905      16.48465761       9.30240728
N       16.40028261      16.13337190      11.03730795
H       15.57924543      15.82920196      11.55933430
H       17.28520113      16.19084370      11.55138470
N       17.29187013      17.07970322       9.11841550
H       18.18776095      17.27572397       9.56080881
H       17.15491282      17.43767088       8.17692601
Pb      13.19300706      13.17302834      13.09947063
I        3.35788511       6.61145343       0.57401174
I       13.07487462      16.40914312      12.69499228
I       -0.21122863       6.99274664       3.32113322
C        3.50560079      10.11283346       3.18959915
H        4.15590068      10.89030147       2.77914101
N        3.93752106       9.41598638       4.21871119
H        4.84141314       9.61051744       4.64897943
H        3.37180559       8.69225849       4.66973715
N        2.33161688       9.92079708       2.62513481
H        1.70025782       9.17924997       2.93262141
H       15.16490472      17.13623897      14.83390180
Pb      13.29312057      19.80081160      13.07231693
I       16.48649081      19.51940177      13.12711563
I       13.24091805      23.01283703      12.95923338
I       13.12605537      19.88684364      16.30389832
C        3.36874996      16.45950182       2.96792471
H       16.53412044      23.84475487      15.16027297
N        4.24095891      15.47475200       2.99331838
H        4.92060513      15.36782128       2.24371832
H        4.21741104      14.76478071       3.72802452
N        2.44448391      16.63286927       3.88744547
H        2.35340422      16.00208659       4.68521440
H       14.92465697      24.09731859      16.86120742
Cs       3.46360080      16.27290224       9.70422626
