233
Lattice="-12.957396986651146 6.351727325886291 13.017959588757243 13.11604327292129 6.668741413988977 13.017959588757243 13.195366416056363 13.17897578392661 -6.508979794378622" Properties=species:S:1:pos:R:3 pbc="T T T"
Pb      -6.40765655       6.45618749      12.99090691
I       -3.13660540       6.71878383      13.01562551
I       -6.28937989       9.72398901      13.12917695
I        6.70610890      19.26784639       9.72068618
C       -3.16038076       9.64648145      15.94035530
H       -3.45596727       9.88847522      14.91516179
N       -3.35529612       8.41799727      16.37152525
H        9.46883939      20.88464890       9.23879527
H       10.01800809      21.31810482      10.82948417
N       -2.64177342      10.60217470      16.68418303
H       -2.23680154      10.40473150      17.60294868
H       -2.48225105      11.52913919      16.30018226
Pb       0.33327648      19.55159686       6.48441773
I        3.54934621      19.44118634       6.77296564
I       13.19761628       9.93525440      13.29554443
I       13.19389701      13.19993143      -3.27500740
C        3.38587539       3.26904419       3.56279398
H        4.08339508       3.63321904       4.32332301
N        2.69642716       4.14576763       2.86198895
H        2.79510872       5.13969342       3.02502641
H        2.02771847       3.85536876       2.14223779
N        3.27936884       1.96901761       3.37913410
H        2.62870947       1.56752134       2.70493133
H        4.04197200      20.83923363      10.45697765
Pb       0.17743022       6.47612399       6.62426330
I        3.39823139       6.33116420       6.62537315
I        0.39627989       9.79132739       6.71666547
I        0.16995376       6.37751324       9.83310037
C        3.38804172       9.62122923       9.56756812
H        3.82512850      10.02720859       8.65023975
N        4.03688670       8.66383629      10.19509424
H        4.92841607       8.31126854       9.84793353
H        3.66088346       8.20777134      11.03301139
N        2.24177727      10.10978626       9.99555523
H        1.82807876       9.82510589      10.88834875
H        1.74201970      10.82703326       9.47493833
Pb       0.13786175       6.43828784      13.10239768
I        3.39505752       6.50174558      13.11234666
I        0.40976534       9.76758605      13.20806165
I       13.34388188      19.52261790       9.83906697
C        3.58766368       9.85502443      16.31928296
H        4.41410790      10.09511822      16.99448012
N        2.61908123       9.08389834      16.77338968
H       15.89831157      21.80840126      11.17200114
H        1.87982247       8.73995391      16.15986291
N        3.59092448      10.37456464      15.10970328
H        2.82361900      10.19495485      14.45587090
H        4.37815777      10.92169720      14.77428319
Pb       0.23855456      13.01822990       6.51119207
I        3.51061662      13.56165059       6.75954633
I        0.24535427      16.30401890       6.67094367
I        0.07693517      13.10743613       9.79662018
Pb       0.22728752      13.12475487      13.08894050
I        3.45045230      13.31424911      12.68923883
I        0.29559129      16.28289313      12.80394891
I        0.09141516      13.31071919      16.31875124
C        3.42303331      16.28655745      16.54544226
H        2.85628859      16.47786429      17.46156227
N        3.25569629      15.12808725      15.94389160
H        2.59444888      14.44396064      16.30971234
H        3.70031431      14.90236183      15.05290016
N        4.23760279      17.22108714      16.10565416
H        4.79481125      17.09138720      15.25725404
H        4.33217667      18.10193358      16.60431771
Pb       0.25061752      13.09054928      19.60602806
I        3.45722758      12.92815844      19.28294144
I       13.60685214       9.94269138       6.61519779
I        0.50602184      13.25648487      22.80201040
C        3.43189668      16.22990519      22.72323859
H        2.93654814      15.36083514      22.28008920
N       15.66733061      10.95699162       9.94248541
H       14.68874682      10.99868043       9.67443786
H       16.00758337      11.68842379      10.57207162
N        4.71793939      16.15250820      22.99613638
H       -7.86694199      10.30432770      10.27104834
H       -7.87829872       8.61884809       9.81642901
Pb       6.58086609       6.58860701       0.00586521
I       -3.08001092      12.90737027      13.41074243
I        6.84995645       9.84908338      -0.40266300
I        6.42850687       7.09846124       3.22211144
C        9.96653353       9.65169481       3.17169900
H       10.14553081       8.62791957       2.83274712
N       10.95455878      10.30266110       3.74613680
H       11.85773541       9.85740384       3.87989115
H       10.81918930      11.22469641       4.16724796
N        8.77056959      10.16932476       2.97824694
H        8.53841908      11.13558921       3.21957580
H        8.04955561       9.63117794       2.50545035
Pb       6.69421942       6.68255592       6.47922244
I        9.92544996       7.02895142       6.47428686
I        6.36756466       9.89534282       6.80571649
I        7.05294211       6.55317730       9.70038735
C        9.71562635       9.78603365       9.62765323
H        9.12967942       8.86334860       9.57057712
N        9.57593167      10.54858952      10.69170195
H        8.87817504      10.32841470      11.40406453
H       10.07418649      11.43391574      10.78488168
N       10.52911910      10.07183169       8.63430607
H       11.11996468      10.90394722       8.65251568
H       10.60910512       9.44312118       7.83703139
Pb       6.68176053       6.58483086      12.96467804
I        9.93150929       6.50119951      13.08808048
I        6.66285372       9.88355372      12.90711650
I       19.54205573      19.90107685       9.67807451
C        9.82003406      10.01339761      16.35629097
H        9.18274043      10.76527502      16.83072623
N       -1.99735733       3.39246600       3.55644279
H       -1.58887280       4.10524294       4.15452533
H       -1.37011808       2.67105303       3.19976608
N        9.25346597       9.10491684      15.59055471
H        9.79679425       8.41594477      15.06437607
H        8.24745194       9.08492468      15.45303652
Pb       6.74172714      13.17535225      -0.12362116
I        9.98689247      13.14941861      -0.19803830
I        6.77415446      16.34972259      -0.35572345
I        6.68704205      13.23368078       3.20883479
C       10.17508606      16.44413066       3.09184003
H       10.54879895      17.08329658       2.28674436
N       10.07961489      16.94769735       4.30718385
H       10.34984488      17.90368487       4.52609191
H        9.63765543      16.41730960       5.05649741
N        9.83387382      15.20384344       2.81187256
H        9.51550221      14.56742951       3.54437276
H        9.90881867      14.81612944       1.86908582
Pb       6.68620903      13.11197986       6.51588935
I       10.02069958      13.14418908       6.08995463
I        6.92665770      16.39271034       6.46146636
I        6.81943350      13.47329626       9.71437651
C        9.84478395      16.60460474       9.81948011
H        9.07199622      17.36292927       9.97715013
N       10.69901708      16.36713952      10.79090496
H       10.67696784      16.91213972      11.64915272
H       11.38752650      15.61620887      10.71511019
N        9.87314086      15.98185410       8.66023514
H       10.58209755      15.28086006       8.44648324
H        9.13352033      16.13170717       7.97191005
Pb       6.72489128      13.19269724      12.91325670
I        9.94396551      13.23676547      13.25447456
I        6.54223165      16.39154302      13.14693361
I        6.65298737      13.08390356      16.18684472
C       10.00926254      16.22145838      16.03210353
H       10.28178510      15.34493782      15.43698899
N       10.95482133      17.07263643      16.36543033
H       11.90154394      16.96106410      16.01472317
H       10.77566275      17.85346712      17.00165828
N        8.74606446      16.36500783      16.37822293
H        8.40532365      17.21186530      16.83183923
H        8.05546164      15.65808517      16.13441858
Pb       6.72440352      13.06850713      19.43567970
I       -3.14306714       6.16238233       6.49293297
I        6.96034131      16.35348063      19.64050364
I       -6.76401806       6.16077120       9.71821912
C       -3.28079149       9.72549607       9.79469453
H       -4.36444815       9.68849481       9.92495082
N       -2.74065945       9.08542705       8.77720023
H       -3.30595186       8.54351814       8.12656378
H       -1.74511735       9.15918487       8.55999135
N       -2.56462379      10.41182835      10.66494689
H       -1.54988377      10.44260377      10.61072594
H       -2.99331420      10.91950114      11.43723466
Pb       6.79214628      19.66171598      12.97266261
I       10.05279745      19.45284168      12.96934670
I       19.86544138      16.55354797      -0.36448208
I        6.93580709      19.81123425      16.22238444
C       10.06467691      22.85857091      16.49097490
H        9.55402541      22.73761666      17.45089365
N        9.35897702      22.70728803      15.38882117
H        8.38146895      22.43468758      15.41690740
H        9.78160538      22.83240086      14.47210912
N       11.34536810      23.16444148      16.48615501
H       11.86668683      23.21970330      15.60470769
H       11.87251723      23.23538441      17.35686953
Pb       6.85955718      19.59324192      19.49732901
I       10.14756612      19.56117781      19.23276657
I       19.85908640      16.54673532       6.21162488
I       -6.61183946      13.01010662       9.74675665
C       10.04137005       9.84507554      -3.43199178
H       -2.12389804      16.25805872       8.83269247
N        9.13816764      10.80077694      -3.39534949
H       22.29501632      18.24899062       8.97003734
H        8.38574361      10.79721062      -2.70414283
N       -2.92521079      15.16163673      10.40008166
H        9.36010557       8.74056140      -1.85322583
H       -2.17879703      14.46676708      10.35471410
Pb      13.25850991      13.16571668      -0.04663489
I        3.55432533      19.37782580      12.91473563
I        0.14782699       3.26005946       6.53888383
I       13.39312528      13.02829121       3.26033303
C       16.51646615      16.39818542       3.55559091
H       17.00448943      15.60336890       4.12745760
N       17.16766803      17.52986901       3.37465300
H       18.08237649      17.68014144       3.79101671
H        3.61653749       5.07182983       9.25355782
N       15.30974835      16.17688756       3.08221056
H       14.75951713      16.92041874       2.65021129
H       14.84427549      15.27505898       3.20437696
Pb      13.33098453      13.21858773       6.44950186
I       16.58300501      13.23960867       6.20804433
I       13.32007166      16.40641167       6.67226430
I       12.58270779      13.19488430       9.79374369
C       16.35508832      16.67063102       9.75492744
H       15.63660543      17.48132006       9.60142951
N       17.48570149      16.69257237       9.08259531
H       17.70744033      17.46087233       8.45470288
H       18.18153901      15.95330751       9.19024945
N       16.03014103      15.70539825      10.59062867
H       16.68115983      14.95370513      10.82142960
H       15.18508906      15.76642175      11.15532204
Pb      13.12378518      13.16081142      13.12139371
I        3.35947375       6.39335649      -0.02005933
I       13.40815258      16.43964624      13.29591991
I       -0.08472071       6.70575445       3.32855476
C        3.21036539       9.86041246       3.14786308
H        2.33453520      10.51294985       3.09279298
N        4.38775967      10.36431355       2.83893251
H        4.50040088      11.33143134       2.54740929
H        5.21866335       9.77430621       2.86631764
N        3.04845926       8.61066203       3.52567935
H        3.85445920       7.98671717       3.61561588
H        2.12115259       8.21895119       3.69492994
Pb      13.28833495      19.67722616      13.07358441
I       16.56122382      19.87701951      13.13517529
I       12.80748328      22.96596707      13.10421876
I       13.61570275      19.68972736      16.32754231
C        3.34157326      16.00397490       3.23763428
H        2.93984312      14.99184519       3.33902963
N       16.66700457      23.14072457      15.04387616
H       16.53657142      22.53659232      14.23645129
H        3.78090066      10.91900070      21.37829545
N        3.57279675      16.69540448       4.33378537
H        4.01972211      17.61160119       4.30666518
H        3.39190709      16.28954171       5.24729622
Cs       3.50685477      16.28344629       9.84646396
