233
Lattice="-12.957396986651146 6.351727325886291 13.017959588757243 13.11604327292129 6.668741413988977 13.017959588757243 13.195366416056363 13.17897578392661 -6.508979794378622" Properties=species:S:1:pos:R:3 pbc="T T T"
Pb      -6.42681233       6.41913355      12.99968920
I       -3.17865142       6.59577798      13.19335280
I       -6.24594038       9.70962038      13.02103844
I        6.59076209      19.43829897       9.80712111
C       -3.00387576       9.58056798      16.44929414
H       -2.61570855      10.03818962      17.36469614
N       -2.94116727      10.27564336      15.33220624
H       -2.46234867      11.17157191      15.29519621
H       -3.39813828       9.95524729      14.47933648
N       -3.52575731       8.37380839      16.52263645
H       -3.76939978       7.85289363      15.67681608
H        9.66762219      21.03719396      10.89562924
Pb       0.28451563      19.46251965       6.64477644
I        3.54379508      19.35853610       6.85686825
I       13.43728873       9.79018931      13.04689445
I       13.50114118      13.10114130      -3.20868669
C        3.13423669       3.06728966       3.34226386
H        2.69232463       2.16055303       2.91929129
N        3.25377151       4.12572011       2.56731377
H        2.85738372       4.14118976       1.63218241
H        3.77412076       4.95112645       2.86536748
N        3.53402087       3.04498363       4.59664848
H        3.81426676       3.89861250       5.08203080
H       16.64597252      15.37678515      -1.34934701
Pb       0.03867858       6.33508531       6.41425773
I        3.29749518       6.52933330       6.31864214
I       -0.12007282       9.68226978       6.00249265
I        0.11037903       6.19788117       9.72214415
C        3.58761860       9.73064039       9.68502660
H        4.61488970       9.60366319       9.33306363
N        3.23281266       9.16191427      10.81650288
H        3.91285492       8.67062859      11.39118991
H        2.30649255       9.29528194      11.23369188
N        2.74899649      10.41291476       8.92707597
H        1.83466345      10.71056881       9.27850196
H        3.08276900      10.89468884       8.09608535
Pb       0.09464366       6.25811623      13.07013172
I        3.35504017       6.13365943      13.02605872
I        0.38428404       9.60926277      13.10910330
I       13.32772444      19.29759981       9.73658409
C        3.29789792       9.77556929      16.48571657
H        2.95224811       9.78247611      17.52212021
N        3.12873856       8.67709822      15.78061071
H       15.86042402      21.04269204       9.66780584
H        3.45872857       8.59477643      14.82046263
N        3.85057440      10.86954844      16.00213033
H        4.17308359      10.92761770      15.03565772
H        4.00451217      11.67817175      16.59905829
Pb       0.23238801      13.00236305       6.43459288
I        3.46110848      13.46044847       6.65199635
I        0.28587310      16.18928936       7.03203591
I        0.05927808      12.74696939       9.70479480
Pb       0.23809589      12.85524932      12.92357671
I        3.46986378      13.02341813      12.74778089
I        0.56577727      16.14848445      12.75636984
I       -0.07051093      12.92741122      16.17361989
C        3.33144018      16.43025394      16.23438627
H        3.36280721      17.34662152      15.63817501
N        2.78477370      15.35548794      15.70280634
H        2.37492438      15.38315048      14.77029345
H        2.62068242      14.51800940      16.26018674
N        3.84493417      16.44546082      17.44588832
H        3.88293175      15.59176068      18.01080431
H        4.25066213      17.28813359      17.84282335
Pb       0.03302340      12.81667030      19.34371734
I        3.36268870      13.18621592      19.12070011
I       12.95179029       9.69309764       6.51961144
I        0.35956972      12.59298588      22.76797495
C        3.42240796      16.30266109      22.82581395
H       16.90156859      10.72612672      10.37550180
N        3.04974169      15.20280989      23.44985675
H       -9.89974758       8.40573108      11.42577354
H        2.47452034      14.49211139      22.99454575
N        3.20760204      16.49909913      21.53900872
H        2.67128774      15.83592135      20.98000648
H       16.41968202      11.02622761       8.07042048
Pb       6.64848887       6.52323542      -0.07646811
I       -3.03488202      12.82548566      12.80148450
I        7.27787731       9.88700837       0.01584509
I        6.15524646       6.72289929       3.18572191
C        9.99180882      10.00436295       3.36402696
H       10.66288377      10.04925454       4.22655973
N       10.50478677      10.15108101       2.15850759
H       11.49232480      10.34775275       2.02175846
H        9.89635578      10.17504875       1.34003693
N        8.70831812       9.78709721       3.56666901
H        8.06557456       9.72688694       2.77556647
H        8.30809377       9.73716314       4.50242520
Pb       6.56742608       6.66274245       6.44144592
I        9.78586837       6.42537791       6.30067090
I        6.35222816       9.89082387       6.56461276
I        6.83912418       6.83230477       9.71542396
C        9.92087830       9.91260756       9.76416027
H       10.71740132      10.66206747       9.78201967
N       10.24386158       8.63924178       9.88811088
H       11.20899936       8.33203443       9.97272229
H        9.51500693       7.92356122       9.90648357
N        8.67327729      10.31541211       9.62546363
H        7.91672397       9.63688157       9.53407277
H        8.42444516      11.30035227       9.54352027
Pb       6.60375271       6.58724765      12.96275403
I        9.88996049       6.65031885      13.30559829
I        6.26553392       9.81451901      13.00371202
I       19.81649787      19.92048569       9.71330002
C        9.87546689      10.04710850      16.31654879
H       10.19575253      10.96967873      16.81024409
N       -2.33145536       2.46388642       3.03242664
H       -1.36308085       2.59386457       3.30463047
H       10.56715784       8.31750747      15.47045224
N        8.60042625       9.90768244      16.01734372
H        8.20685951       9.00975349      15.72676171
H        7.94343638      10.66742954      16.19613063
Pb       6.76271441      13.21287059      -0.04518731
I        9.98743594      13.51392386       0.04606205
I        6.42208617      16.38528389      -0.11160164
I        6.53193363      13.24273863       3.20274397
C        9.95597539      16.44596582       3.45497725
H       10.06700872      16.95030329       4.41941666
N        8.94213304      16.78318851       2.68453258
H        8.28670879      17.51800595       2.95684340
H        8.79533665      16.35134376       1.77301390
N       10.84081518      15.53140497       3.12064119
H       10.75464191      14.99906971       2.24913337
H       11.61258153      15.30027975       3.74033836
Pb       6.68595671      13.18425796       6.44996349
I        9.91420023      12.79189501       6.39981929
I        6.83055167      16.38384437       6.44955757
I        6.63988727      13.46447324       9.72939893
C        9.93383758      16.44754618       9.55126476
H       10.04462420      17.12526876       8.69938858
N       10.66541902      15.35480499       9.58451038
H       11.31173110      15.14027986       8.83020327
H       10.59527709      14.68465060      10.35360409
N        9.08555848      16.77849541      10.50256440
H        8.91025726      16.17006174      11.30165130
H        8.48637961      17.59949195      10.40530980
Pb       6.69844914      13.11048541      12.96296949
I        9.96463864      13.27084080      12.79897250
I        6.57826866      16.33286709      13.20298587
I        6.85137496      13.19000893      16.24174864
C        9.86561489      16.34754357      15.92525908
H        9.18198160      16.39758030      15.07246372
N       10.48020528      15.20986377      16.17004744
H       10.35775670      14.40806091      15.55733706
H       11.17080680      15.12936600      16.91727188
N       10.02589070      17.42609767      16.66324600
H       10.64789840      17.43035694      17.47276171
H        9.50271002      18.27385143      16.46545055
Pb       6.66180701      13.12049809      19.48116225
I       -3.21747046       6.25794471       6.53392698
I        6.78455169      16.38791355      19.47859950
I       -6.60774357       6.43279807       9.76701715
C       -2.99526531       9.78865220       9.76260517
H       -3.38945599      10.71664346      10.18811712
N       -1.89116509       9.28465279      10.27435549
H       -1.41410967       9.72855119      11.05838276
H       -1.49927681       8.39280651       9.95639523
N       -3.63876980       9.22746057       8.76063893
H       -3.30542352       8.37099213       8.30883248
H       -4.48762787       9.63193312       8.36363913
Pb       6.77286733      19.56943926      13.07029163
I       10.04236950      19.56682811      13.17939072
I       19.65102212      16.56140348       0.09597090
I        6.75090531      19.54061459      16.29869946
C       10.08245162      23.12966116      16.27498812
H       10.36731932      24.04152473      15.74252200
N       10.74105277      22.80225299      17.36858446
H       11.50482965      23.37266209      17.71831198
H       10.50093038      21.96687300      17.91378728
N        9.09688168      22.40448172      15.78986891
H        8.76937087      21.55343124      16.24960771
H        8.58636617      22.68244098      14.94920634
Pb       6.87954364      19.64944520      19.55164441
I       10.09559226      19.82021842      19.49175824
I       19.78761034      16.51821949       6.44339360
I       -6.41005719      13.00582594       9.73208173
C        9.99111522       9.86831752      -3.48003386
H       -2.42856896      16.32183976       8.59160171
N       -2.30999933      15.75066594      10.58124210
H       -1.34513019      15.44432406      10.50118311
H       10.15639479       9.13733193      -1.58198142
N        8.73046250      10.23808603      -3.41873063
H        8.22179101      10.23124337      -2.53038023
H       21.34970857      17.22482612       8.76986598
Pb      13.24810688      13.12450448       0.01293494
I        3.53348533      19.39128196      13.09357372
I        0.12666785       3.13432684       6.50757359
I       13.26683201      12.67513742       3.23843503
C       16.63404424      16.30776341       3.30312494
H       17.57112889      15.74387630       3.29304761
N       16.51146300      17.33725325       2.49138186
H        4.04860317       4.39496826       8.33725468
H        2.46856143       4.73058563       8.99014930
N       15.68073885      15.92189286       4.12528471
H       14.80356040      16.43456869       4.20843470
H       15.82442439      15.13803719       4.76328866
Pb      13.04908310      12.87259279       6.45908878
I       16.51630643      13.25373329       6.52020247
I       12.75928980      16.21305801       6.42377207
I       13.13441792      12.74364445       9.73547122
C       16.37692201      16.52444688       9.92821914
H       15.77179951      17.21780504      10.51877064
N       15.77485821      15.51288869       9.33926770
H       14.78527002      15.33643402       9.47579098
H       16.26908887      14.87579896       8.70942514
N       17.67407746      16.74428305       9.84084752
H       18.29045811      16.09406267       9.35394702
H       18.09308290      17.58467461      10.23095877
Pb      13.28960984      13.08938527      12.98149285
I        3.39411434       6.54979401      -0.23540280
I       13.34389486      16.30722370      13.06367167
I       -0.02512893       6.03817532       3.21129685
C        3.23098940       9.98593700       3.13588988
H        2.60441792      10.86258835       3.32596933
N        2.78283776       8.80207715       3.50022889
H        1.89405164       8.70380952       3.98485970
H        3.37338054       7.97397411       3.42680207
N        4.38975243      10.15746117       2.53303378
H        4.99983145       9.36540789       2.33095978
H        4.72899207      11.08715561       2.29794916
Pb      13.34385811      19.54466264      13.01954169
I       16.61673744      19.66832614      12.77827174
I       13.32017954      22.78947153      12.64262963
I       13.58001257      19.85224905      16.25050843
C        3.60113003      16.09626259       3.19812418
H        4.37444608      15.32764193       3.28662369
N        3.14996203      16.66309144       4.29665088
H        3.48384516      16.37529465       5.21047820
H        2.44955081      17.40659547       4.25453742
N       16.29147306      23.08599589      15.01150219
H        2.30137741      10.53181721      21.38960181
H       16.67484932      22.63137253      14.18763155
Cs       3.62983945      16.32861155       9.83098576
