233
Lattice="-12.957396986651146 6.351727325886291 13.017959588757243 13.11604327292129 6.668741413988977 13.017959588757243 13.195366416056363 13.17897578392661 -6.508979794378622" Properties=species:S:1:pos:R:3 pbc="T T T"
Pb      -6.41710711       6.36237577      12.89539373
I       -3.16386696       6.50724569      12.66236370
I       -6.44821375       9.65078085      12.80865721
I        6.65673845      19.60153637       9.71448632
C       -3.13507140       9.70099601      16.34847270
H       -3.69810668       9.94582878      17.25300567
N       -1.97591074      10.29484535      16.14989545
H       -1.59796336      10.95499339      16.82380472
H       -1.43081521      10.13352003      15.29849296
N       -3.65073260       8.82747865      15.50657069
H       -3.17396909       8.54977129      14.64666954
H       -4.53631920       8.36326937      15.70150583
Pb       0.35350617      19.41858415       6.48365540
I        3.53033022      19.29602301       6.73546632
I       13.52215425       9.85431900      12.84179361
I       13.26212360      13.14125822      -3.29490580
C        3.41581188       3.53818219       3.47745175
H        3.13663525       4.56429185       3.73460217
N        4.55694173       3.33258930       2.85159348
H        5.18518179       4.10649816       2.64624996
H       -8.03651024       8.74140518      15.71254443
N        2.57919584       2.57135220       3.79071156
H       15.96342462      14.77655143      -2.94445387
H        1.73927319       2.76269053       4.33783244
Pb       0.18430414       6.49211444       6.32851831
I        3.44354734       6.73777415       6.40831764
I        0.25048602       9.72782223       6.04337581
I        0.23170777       6.52096131       9.69454399
C        3.36868812       9.89252480       9.96027906
H        2.93562830      10.39551336      10.82920143
N        2.62672337       9.74981448       8.88130896
H        1.69875541      10.15874907       8.82830987
H        2.91963099       9.16446724       8.09822318
N        4.61193040       9.46151725      10.04184700
H        5.09964902       9.07061025       9.23534653
H        5.14117348       9.55414553      10.90662563
Pb       0.03544430       6.54255483      12.93773557
I        3.36907691       6.38347213      12.98021252
I       -0.10295676       9.76330139      12.85649689
I       13.39176318      19.83472888       9.69404898
C        3.34756035       9.88428585      16.52586951
H        2.76073558       9.97450507      17.44400919
N        4.14377555      10.87763885      16.18955902
H        4.22140711      11.70076708      16.78130132
H        4.71028198      10.83634588      15.34047381
N        3.22430541       8.78739718      15.81054422
H        3.77357751       8.62518137      14.96731654
H       15.75211592      21.24100453       9.56419233
Pb       0.12519428      12.91409146       6.43090425
I        3.38340976      13.29565938       6.73140781
I        0.33838408      16.21889677       6.61915070
I        0.09612072      12.80607072       9.69417589
Pb       0.16527005      13.09543968      12.95776102
I        3.45811081      12.99634468      12.69403928
I        0.27950518      16.27324461      12.85817138
I        0.41181846      13.23985998      16.25272422
C        3.48630981      16.37906665      16.16065329
H        4.05485673      17.15842584      15.64598021
N        2.59671396      16.74123794      17.06086070
H        2.42451208      17.72301920      17.26255595
H        2.04442526      16.06172962      17.58457349
N        3.73180097      15.11865725      15.86239557
H        3.16319232      14.36972383      16.25832608
H        4.42298212      14.86674061      15.16194151
Pb       0.20377173      13.06950670      19.49476797
I        3.49401387      13.07916314      19.27586512
I       12.97622473       9.93815035       6.66120769
I        0.17509666      12.84171308      22.74904049
C        3.67054017      16.21443540      22.64387606
H        4.40243503      16.48787635      21.87743111
N        3.17699587      14.99267705      22.62179049
H        3.45590943      14.32871732      21.90294728
H        2.48052004      14.68046197      23.29667744
N       16.28383966      10.76500591      10.51766532
H       15.58576034      10.56293507      11.24112461
H       16.73306350      11.67596276      10.54477275
Pb       6.57767392       6.56088725      -0.02053446
I       -3.06362948      13.09949813      13.10218254
I        6.45037154       9.85640347      -0.07725291
I        6.79720482       6.51874885       3.22454216
C        9.99545681       9.82133435       3.40003156
H        9.77232647       9.20420645       4.27416650
N        9.15540175       9.80002558       2.38523722
H        8.35372135       9.17590081       2.37839005
H        9.27901563      10.41518829       1.58053301
N       11.08872975      10.55678161       3.41309095
H       11.34613161      11.14895695       2.62500846
H       11.70932916      10.54563224       4.22192188
Pb       6.69702184       6.43646586       6.50170702
I        9.95904927       6.23295580       6.48420190
I        6.70793683       9.72627258       6.63086094
I        6.78713506       6.53579053       9.75220960
C        9.86414212      10.12524978       9.86447200
H       10.14988072      11.16393832       9.68189390
N       10.80758351       9.26475283      10.19320801
H       11.77353423       9.55756105      10.28910259
H       10.58510915       8.31963736      10.50153715
N        8.59629468       9.78848764       9.75171401
H        8.28251863       8.81277427       9.78375860
H        7.90560058      10.49037570       9.48953705
Pb       6.63723834       6.38007655      13.04422766
I        9.89299845       6.63285382      12.96580575
I        6.55471122       9.74604511      13.44215058
I       19.88268334      19.57259339       9.78371798
C        9.98923274       9.83234118      16.35503826
H       -2.31835212       3.26008021       4.06640968
N       10.28012460       9.42442199      15.13530584
H       11.23274810       9.20852706      14.85888514
H        9.54717789       9.26076175      14.44624412
N        8.75797291      10.12969388      16.72332818
H        7.99766017      10.13325973      16.04404131
H        8.53313908      10.40848817      17.67552264
Pb       6.62723510      13.14969768       0.01579969
I        9.93463003      12.98442841       0.29338709
I        6.86699912      16.34597033       0.34594404
I        6.28940043      12.78782877       3.23502451
C       10.12671238      16.33100163       3.55358559
H       10.36905235      16.62969114       4.57720609
N       10.40499045      17.17302430       2.57951946
H       -2.28846585       4.85976204       9.26474827
H       10.10582839      17.00033308       1.62319980
N        9.56174311      15.15713627       3.35860442
H        9.43444119      14.77252507       2.41932847
H        9.40937270      14.52614167       4.14581857
Pb       6.56662325      13.03227438       6.46518079
I        9.85873986      13.06009714       6.48569578
I        6.84577091      16.27458984       6.64085420
I        6.63853404      13.00991423       9.73263833
C        9.95882667      16.32213093       9.52342408
H       10.19228345      15.76109347       8.61334147
N        8.98362588      15.88464538      10.29220844
H        8.44063625      15.05789582      10.04436498
H        8.69511216      16.38006538      11.13627446
N       10.66394946      17.39828438       9.79415622
H       10.49443239      17.95150961      10.64192030
H       11.43564550      17.68292934       9.19619571
Pb       6.76772680      13.01517494      13.00438274
I        9.96534987      12.84822821      12.84365440
I        6.45784668      16.20943158      12.93342714
I        7.08911768      13.40517205      16.22987062
C       10.18175413      16.55698444      16.16999989
H       10.76993042      17.47903303      16.12409905
N        9.50487217      16.30186783      17.26890321
H        9.51721333      16.95873074      18.04755370
H        8.93992262      15.45670224      17.36366768
N       10.18785931      15.76148720      15.12052841
H        9.65501105      14.89151947      15.10097204
H       10.77357389      15.97052755      14.31479012
Pb       6.74547731      13.13193300      19.55858320
I       -3.10387907       6.54768454       6.49716535
I        6.61277754      16.30538524      19.79292661
I       -6.61563438       6.26038803       9.72394275
C       -3.27288591       9.67771883       9.64959184
H       -4.19152858       9.50332012       9.08224545
N       -2.15016630       9.15533667       9.19552390
H       -2.15151767       8.55602537       8.37333842
H       -1.29038397       9.20306985       9.73919910
N       -3.33275146      10.41542063      10.73650397
H       -2.50614952      10.61608029      11.30133030
H       -4.21986838      10.77019001      11.08315115
Pb       6.68451719      19.47507219      12.98159987
I        9.96686316      19.29276406      12.88597124
I       19.50170893      16.36663312       0.14541014
I        6.67060580      19.21990374      16.22497313
C        9.93799570      22.72714926      16.15269988
H        9.44173407      22.00614558      16.80866035
N       10.22932822      23.91831937      16.63341829
H       22.93073834      17.85250602       4.55928239
H       -2.48171145      11.43411630      22.57407799
N       10.22719227      22.37365670      14.91554407
H       10.63828913      23.04201242      14.26280755
H       10.03176958      21.43887709      14.55757600
Pb       6.73009141      19.55349678      19.45531554
I        9.97785209      19.42428590      19.42969172
I       20.04898571      16.42676069       6.26397587
I       -6.53251182      12.76682885       9.73538402
C        9.99390774       9.82328932      -3.26717830
H       -2.23002017      15.62978756       9.14921527
N       10.21371530      11.09667412      -3.00416778
H       11.07951899      11.56310845      -3.27917285
H        9.52853380      11.65886286      -2.50029288
N        8.92125536       9.18339304      -2.84416169
H        8.26111917       9.61136313      -2.18935439
H       -4.19643336      14.55713042       9.95162095
Pb      13.26215924      13.16408219       0.03978161
I        3.47452531      19.20108315      12.73030709
I        0.03048553       3.23265498       6.43701025
I       13.50020623      13.45106125       3.23612677
C       16.45075882      16.53356510       3.15929474
H       16.90367266      17.41486900       2.69625327
N       16.96537965      15.35135995       2.88982288
H       17.76317895      15.26015678       2.26521909
H       16.60519596      14.50611060       3.32915685
N       15.42707476      16.70377764       3.97008577
H       14.90374812      15.91113603       4.34217290
H       15.02160492      17.62924359       4.10395563
Pb      13.06762673      13.25976758       6.61926414
I       16.38672980      13.35303925       6.42005664
I       12.84017251      16.47036599       6.66860107
I       13.16173796      13.28799946       9.75014318
C       16.47102591      16.28400673       9.73995136
H       16.37977752      15.28004184      10.16284037
N       16.70396519      17.28521537      10.56655901
H       16.87529411      17.12346953      11.55271569
H       16.86861578      18.22938601      10.22766043
N       16.32485705      16.44368057       8.44228091
H       16.36786067      17.36686056       7.99554647
H       16.18213889      15.63481233       7.83450709
Pb      13.23675392      13.12499072      12.99790558
I        3.35997926       6.76589807       0.07995988
I       13.26776530      16.42328956      13.00326719
I        0.03762279       6.11181552       3.19047649
C        3.24747638       9.65500971       3.17686846
H        2.42358043       8.97095507       3.39969660
N        3.16953432      10.39118438       2.08795235
H       15.48931217      16.96722095      14.47414721
H        3.90171890      11.05428907       1.83396542
N        4.26070880       9.70645382       4.01343417
H        5.02478459      10.37527917       3.88656847
H        4.29909869       9.09437436       4.82516049
Pb      13.30973410      19.70869327      12.98356659
I       16.52160297      20.06821281      12.91959489
I       13.40697127      22.96430247      12.86888751
I       13.13739777      19.71997594      16.19184415
C        3.41178867      16.32419683       3.09224541
H       16.98890067      23.01343621      15.11907135
N       15.22181732      22.84910435      16.20243157
H       14.64286390      22.79045169      15.36512316
H       14.74468079      22.83430505      17.10715937
N        4.19613484      16.43274452       4.14650257
H        3.82410864      16.42292897       5.09339422
H        5.19443504      16.58504331       4.05244324
Cs       3.41546490      16.14397332       9.79351627
