233
Lattice="-12.957396986651146 6.351727325886291 13.017959588757243 13.11604327292129 6.668741413988977 13.017959588757243 13.195366416056363 13.17897578392661 -6.508979794378622" Properties=species:S:1:pos:R:3 pbc="T T T"
Pb      -6.33985331       6.31049952      12.93252609
I       -3.16231844       6.42458166      12.33943970
I       -6.15145070       9.58961980      13.15315560
I        6.82751075      19.05822562       9.70756260
C       -3.19945287       9.80897698      16.14354000
H       -3.71082011      10.75232422      15.93241034
N       -3.93381653       8.72697402      16.31938940
H       -4.94291557       8.76094808      16.23510066
H        9.66075640      21.05965645      10.21511978
N       -1.88556365       9.79933435      16.20054356
H       -1.36907051       8.91601317      16.28266875
H       -1.34235365      10.65567141      16.09027166
Pb       0.27216802      19.51900232       6.55453012
I        3.55994762      19.31708259       6.65857679
I       13.64767039       9.93997569      13.14243856
I       13.25813027      13.19566668      -3.26374800
C        3.26152198       3.27243138       3.49535524
H        3.82192865       3.48416694       4.41102002
N        3.93787178       3.04266672       2.38551308
H       -8.00776175       9.46523264      15.36203297
H        3.45861930       2.73115984       1.54249597
N        1.94762222       3.25765482       3.53677661
H        1.39700907       3.13648253       2.68028247
H        1.43865190       3.35798715       4.41968899
Pb       0.12022395       6.64952070       6.42593526
I        3.39059634       6.71339763       6.37510051
I        0.22650195       9.83374227       6.35886142
I        0.29236800       6.33036280       9.69606193
C        3.46117523       9.68940186       9.47069251
H        3.61182656       9.14908787       8.53079098
N        4.09341801      10.82825111       9.65617193
H        4.67826983      11.22800337       8.92873063
H        3.96185864      11.38591872      10.50933089
N        2.66117318       9.15648510      10.37122395
H        2.45972244       9.62067594      11.25603374
H        2.17477175       8.27844928      10.19328478
Pb      -0.00566956       6.49838101      12.95160625
I        3.33937244       6.66976310      13.09173297
I        0.03205047       9.75299904      12.93824969
I       12.82853725      19.63230024       9.67146875
C        3.47239857       9.98218296      16.38168404
H        3.20574665      10.86561701      16.96931460
N        4.70441902       9.52505300      16.46447525
H        5.40074372      10.00061161      17.03390562
H        4.98561631       8.63808196      16.04335796
N        2.54404003       9.42096151      15.63562932
H        2.75953407       8.65122750      14.99578112
H        1.61811343       9.83180962      15.57018800
Pb       0.04798927      13.08029338       6.49153548
I        3.39347535      13.22068120       6.62071215
I        0.20604251      16.31881055       6.83065317
I       -0.15108182      12.83080531       9.71248402
Pb       0.17992152      13.01733593      12.94239805
I        3.46846593      12.86857390      12.66063928
I        0.53731573      16.23814136      12.83672818
I        0.37104672      12.86152584      16.19041038
C        3.38556879      16.21965125      16.46088241
H        2.91415136      15.83496501      17.36963570
N        4.44668024      15.59915301      15.98761886
H        4.84744410      14.79086163      16.45830002
H        4.95525635      15.94369805      15.16669058
N        2.86099146      17.28239415      15.88768739
H        3.22372594      17.65992587      15.00884887
H        2.03333810      17.74310483      16.26656222
Pb       0.20915662      12.99489868      19.43983847
I        3.47022725      12.89179283      19.45487450
I       13.19513503       9.91988359       6.15909592
I        0.34465306      13.18242374      22.76617411
C        3.52238133      16.55062589      22.80959969
H       16.57570406      11.28653366       9.81801765
N        2.96672261      15.99479264      21.75369225
H        2.65608947      16.56126140      20.96777162
H        2.80208885      14.99031840      21.69405469
N       -9.15702932       9.18716384      10.82508457
H       -9.20552000       8.17023805      10.84894750
H       -8.68093417       9.63920220      11.60019640
Pb       6.75299156       6.46402213      -0.03379692
I       -3.03214978      13.18347108      13.30018239
I        6.63266585       9.74020852       0.07409490
I        6.70490780       6.18620835       3.21202608
C        9.96005077       9.75489442       3.19385084
H       10.70815342       9.06336194       2.79634845
N        8.68526141       9.48644307       3.00017716
H        8.39779382       8.65006262       2.49864913
H        7.96187389      10.17240594       3.22094066
N       10.36888904      10.82790046       3.84066618
H        9.72035978      11.42914604       4.35048400
H       11.35771854      10.99847081       4.00255150
Pb       6.61278046       6.53007201       6.49362776
I        9.91033733       6.43488933       6.43612769
I        6.57779272       9.82379481       6.49257054
I        6.64316198       6.64022688       9.71891164
C        9.85212713       9.67494673       9.66025009
H        9.94809859       8.78747194       9.02763238
N       10.70041610       9.83415814      10.65491573
H       11.42860735       9.14887310      10.83763633
H       10.61559981      10.62842971      11.29886177
N        8.89358209      10.53596720       9.38387417
H        8.76407042      11.38874464       9.92859692
H        8.25997198      10.37981251       8.59866695
Pb       6.66387532       6.55835943      12.89758269
I        9.89653180       6.66205074      13.01539824
I        6.84357362       9.75191061      12.99835229
I       19.70126735      19.45673407       9.72413271
C       10.01416534       9.80657767      16.48275600
H       -2.77987408       3.25556208       4.50191542
N        9.14082240       8.86176098      16.19930131
H       21.99173467      21.41475296      10.41322254
H        8.83470880       8.68504430      15.24173051
N       10.51980675      10.61351589      15.57178998
H       10.17694707      10.61805853      14.61238970
H       11.20177100      11.33264602      15.81677258
Pb       6.54695573      12.95476093      -0.00015569
I        9.88478571      13.18061535      -0.14256378
I        6.87138355      16.25288373       0.10293777
I        6.67263982      12.79017866       3.23327043
C       10.04910010      16.31656880       3.34810785
H       10.64329487      16.72515801       4.17078835
N        9.63661839      17.13381403       2.40260822
H       -3.31648614       4.94015913       8.92612041
H        8.97357634      16.82824533       1.68108724
N        9.78542517      15.02563993       3.35068229
H        9.32594414      14.56953444       2.56341492
H       10.07795361      14.43560682       4.12828029
Pb       6.64805435      13.14922155       6.46749033
I        9.91781615      13.16299433       6.60724543
I        6.74241769      16.31017074       6.20622759
I        6.65887240      13.57702764       9.72726259
C       10.29110123      16.39854330       9.75452061
H       11.37194652      16.28001497       9.64278560
N        9.54461613      16.33171500       8.67162154
H        9.95692103      16.10549201       7.77191661
H        8.53300850      16.45222505       8.70233778
N        9.80904000      16.60903903      10.96115829
H        8.80752436      16.68837217      11.14241112
H       10.44330281      16.66436636      11.75664693
Pb       6.74650125      12.98355080      12.95745297
I        9.97921714      12.86206312      12.66199031
I        6.67534134      16.28415241      13.11798326
I        6.78725043      12.70253343      16.23383632
C       10.13506193      16.38269590      16.21124649
H       11.03191779      15.75801096      16.23323889
N       10.25729497      17.66685903      15.94086032
H       11.16783316      18.10039232      15.80333523
H        9.44232731      18.27607620      15.88557468
N        8.96683610      15.81373212      16.43661111
H        8.11630279      16.36801702      16.51027132
H        8.88965361      14.82883865      16.67320939
Pb       6.70401679      13.06675747      19.52125114
I       -3.14011392       6.70472704       6.47779372
I        6.56027800      16.27045901      19.30572000
I       -6.68527588       6.48932176       9.72659475
C       -3.11385724       9.96790569       9.70159426
H       -3.02076558      11.05186531       9.59448721
N       -4.31016032       9.42813546       9.61131591
H       -5.12414092      10.01986385       9.46178422
H       -4.47318659       8.42733230       9.72585436
N       -2.01561199       9.26855399       9.90212495
H       -2.04182424       8.26629682      10.08828947
H       -1.12124064       9.73675009      10.00733960
Pb       6.72709428      19.56417740      12.90486211
I        9.96814142      19.97357807      13.05207806
I       19.54848889      16.44806221      -0.11407488
I        6.54038961      19.50381441      16.21051992
C       10.06111022      22.86681535      16.44315696
H       10.34751975      22.55226260      17.45043138
N       10.87377993      23.65618780      15.77023973
H       11.73889754      23.99690613      16.18042500
H       -2.58780025      10.88738160      21.37822480
N        8.91380195      22.43124629      15.95997891
H        8.61764600      22.63127767      15.00321620
H        8.33819370      21.77612526      16.48307032
Pb       6.69920913      19.48227593      19.51039974
I        9.95732663      19.85784069      19.23528837
I       19.48664068      16.41198631       6.64382913
I       -6.00819077      12.71785009       9.71242149
C       10.04408860       9.59393297      -3.22216202
H       -2.47553503      14.97061957       9.56093298
N       10.79237541      10.48314976      -2.60407066
H       -1.21580044      16.61384387      10.71018939
H       10.41330453      11.37019785      -2.26858838
N        8.79848051       9.82830141      -3.57842567
H       21.47058572      17.40987940       9.57862387
H       21.35686412      15.78008074       8.98348450
Pb      13.14242310      13.19926066      -0.07329524
I        3.48829860      19.31020327      12.73037717
I        0.06715443       3.24834618       6.62096978
I       13.12092596      13.35126968       3.22943290
C       16.23724215      16.49085573       3.22653950
H       15.32420372      17.09046813       3.18113362
N       16.27372165      15.34064564       2.58885441
H       15.46580038      15.00757647       2.07029656
H       17.10321191      14.74545550       2.59883580
N       17.25816174      16.96066762       3.91407328
H       18.10827850      16.41612763       4.04671635
H       17.19910484      17.84423553       4.41280446
Pb      13.22876452      13.16399786       6.55312538
I       16.42553183      12.98233392       6.67321640
I       12.92169749      16.41597857       6.49170037
I       13.30857580      13.21092814       9.73466874
C       16.28162515      16.29820434       9.73311805
H       15.45009950      16.00671384      10.38088898
N       16.01788252      16.73017014       8.51636052
H       15.06786103      16.74299840       8.14532736
H       16.77020127      16.99643230       7.88043170
N       17.50906234      16.20570885      10.20211364
H       18.30253661      16.53735018       9.65568144
H       17.69641310      15.88290676      11.14900218
Pb      13.34093199      13.22656773      12.92921424
I        3.43940323       6.80368572      -0.09870155
I       12.98944267      16.46228400      12.94794574
I       -0.08707010       6.67133374       3.20420070
C        3.31263960       9.79849797       3.45032801
H        3.10039668       9.97813303       4.50766082
N        4.27842178       8.96009877       3.13541790
H        4.80448355       8.46855642       3.85180383
H        4.50539587       8.74327186       2.16466175
N        2.58467371      10.42693510       2.55048677
H        2.73971006      10.30599372       1.55184210
H        1.86982608      11.10154913       2.82468753
Pb      13.20669340      19.77845963      12.88877553
I       16.47346573      19.46522054      12.76552585
I       13.61651999      22.95111140      12.79980730
I       13.38126496      19.92974840      16.21373926
C        3.37718226      16.51329444       3.13985320
H       16.53086604      24.23581246      15.86946980
N       16.45009207      22.27689139      15.19903476
H       16.37085618      22.55273904      14.22624021
H        3.20600283      14.61999797       2.38339044
N        3.39478364      16.20654137       4.41927052
H        3.36829067      15.24061113       4.75909302
H        3.45010516      16.93866427       5.12646844
Cs       3.40152270      16.29422663       9.77369796
