233
Lattice="-12.957396986651146 6.351727325886291 13.017959588757243 13.11604327292129 6.668741413988977 13.017959588757243 13.195366416056363 13.17897578392661 -6.508979794378622" Properties=species:S:1:pos:R:3 pbc="T T T"
Pb      -6.43065155       6.40437819      13.00884596
I       -3.16088220       6.38728462      12.66270390
I       -6.17217391       9.69829467      13.31113145
I        6.76862595      19.30913745       9.75957391
C       -2.94257764       9.72650782      16.37045658
H       -2.26630131       9.61685754      17.22433711
N       -3.59798408      10.86224671      16.23654161
H       -3.52512747      11.58608347      16.94878811
H       -4.29888285      10.98377432      15.50511021
N       -3.04969249       8.72620857      15.52335427
H       -3.67087724       8.77280799      14.71394903
H       -2.48354610       7.88699262      15.63442291
Pb       0.27511920      19.49980765       6.53112734
I        3.49139907      19.25234164       6.66908911
I       13.55715911       9.89532109      13.14426721
I       13.27382095      13.11510133      -3.22691833
C        3.03937436       3.16333211       3.42140019
H        2.14984873       2.56594841       3.19762177
N        3.24883431       4.25869616       2.72276709
H        2.59048824       4.54707357       2.00400872
H        4.05687235       4.86555562       2.89050798
N        3.84577875       2.74481010       4.37278874
H        4.67892269       3.26430985       4.66060547
H       16.83676508      15.07155803      -1.61206088
Pb       0.06953967       6.40971600       6.47943000
I        3.30112843       6.56820364       6.68843742
I        0.02756873       9.69061303       6.69596931
I        0.31030227       6.50789274       9.78882334
C        3.58243564       9.90431129       9.93637600
H        4.34851741      10.60011472      10.29049086
N        3.50198696       8.71665707      10.50034720
H        4.13114881       8.44985240      11.25190299
H        2.79167292       8.03880476      10.22278904
N        2.78953793      10.29506725       8.96143546
H        2.05355833       9.69886162       8.57564254
H        2.87174451      11.22453224       8.55611167
Pb       0.12767305       6.35851727      13.05464927
I        3.37364019       6.20493797      13.28752378
I        0.34292701       9.73726438      13.17165019
I       12.90399975      19.34369889       9.74941623
C        3.31514672       9.92275267      16.42418164
H        3.34655267      10.86536784      15.86977114
N        2.86930183       8.84523309      15.80993675
H        2.49646452       8.89149834      14.86374525
H       16.05431055      21.12212581       9.77356178
N        3.74710712       9.90717736      17.66716765
H       16.89405089      22.22410947      11.71459038
H        4.02376746      10.76532491      18.14220388
Pb       0.05064389      13.02093043       6.59016782
I        3.31094994      13.33547094       6.49919763
I       -0.09259059      16.24784451       6.72705179
I        0.33574798      13.12191397       9.78219273
Pb       0.16671997      13.02019745      13.01781384
I        3.34645263      13.44790002      12.92261492
I        0.02470794      16.25731675      12.95784306
I        0.13122139      13.35995551      16.30230095
C        3.36554338      15.92716787      16.28624160
H        3.22171627      14.87354696      16.03193321
N        4.53007119      16.48071477      16.02192489
H        5.26671016      15.93964219      15.57688821
H        4.72415047      17.46739909      16.19604397
N        2.36315649      16.57879145      16.83740815
H       15.41794429      11.19078590       4.13837636
H        1.48547388      16.10612523      17.03691869
Pb       0.09499947      12.96579451      19.50647389
I        3.38889385      13.03606966      19.60069700
I       12.77927150       9.83645996       6.69291661
I        0.10798082      12.97488097      22.80046109
C        3.36299669      16.12523399      22.67243161
H        3.47515580      15.14418247      23.14219621
N        3.49960761      16.22278200      21.36751258
H        3.62470646      15.38249727      20.79886398
H        3.45286314      17.12298437      20.87979503
N       16.08537787      10.81648897      10.42903139
H       15.85938469      11.72598175      10.03157312
H       15.91910035      10.70632498      11.42424667
Pb       6.50609391       6.59919112      -0.00188093
I       -3.13180549      12.85397364      12.55594135
I        6.74007666       9.85598779       0.07865897
I        6.23949629       6.56068058       3.27827839
C       10.11068990       9.90423051       3.33866820
H       11.10695176       9.48194735       3.17814671
N        9.72947317      10.92077944       2.59463107
H       10.35807150      11.34985388       1.92090492
H        8.79844279      11.33639494       2.69333574
N        9.34262738       9.35923558       4.25900118
H        8.43938429       9.75901462       4.51801368
H        9.67071376       8.58023617       4.83086610
Pb       6.50061896       6.53686010       6.54485506
I        9.81671455       6.43860003       6.50790573
I        6.52481445       9.82749851       6.68964603
I        6.60425636       6.67265470       9.78250792
C        9.86400280       9.75118547       9.49843166
H        9.80224573       9.02493213       8.68348338
N       11.02949144       9.94167735      10.08094141
H       11.85337793       9.43630319       9.76636060
H       11.14480909      10.61567811      10.83720653
N        8.76865127      10.39116949       9.85244835
H        8.77998041      11.07319130      10.61230671
H        7.89945411      10.25259938       9.34423756
Pb       6.66054448       6.54254884      13.05013779
I        9.85860713       6.81186221      12.80963516
I        6.33262240       9.78270032      13.24960563
I       20.04781269      19.84461105       9.77429658
C       10.01821289       9.88026030      16.49639322
H       -2.33238211       3.41426145       4.23300667
N       10.06820967       8.73753476      15.84578805
H       10.88280089      14.56830456      -3.48970144
H        9.37993343       8.47640259      15.13990282
N        9.09249840      10.79352102      16.28129500
H        8.35498574      10.66216312      15.58948157
H        9.08512293      11.65838430      16.81517096
Pb       6.70595206      13.11798209      -0.03354011
I        9.95279214      13.42152539      -0.17770735
I        6.89196401      16.36674717       0.38317197
I        6.48816529      12.72241901       3.25618394
C        9.97750250      16.57319211       3.23735910
H        9.55325989      17.53142239       2.92680719
N       11.26736997      16.50274265       3.49787562
H       11.85929866      17.33073575       3.45614494
H       11.72816106      15.60093145       3.64816937
N        9.17151933      15.53370617       3.33926773
H        9.46118060      14.68758292       3.82768032
H        8.20206426      15.59578790       3.04641905
Pb       6.52018886      13.10037624       6.53547726
I        9.80974071      13.36427170       6.58962055
I        6.69793439      16.33440773       6.49638605
I        6.20859720      13.16599481       9.76083050
C        9.99561940      16.30745166       9.85500217
H       10.38999564      16.82959810      10.73174536
N        9.57062987      15.06714706       9.99122307
H        9.61129224      14.58128857      10.88732513
H        9.32625318      14.50908953       9.17075486
N        9.95994341      16.95043627       8.70525764
H        9.44125869      16.58091133       7.90862341
H       10.33212125      17.89122724       8.61271639
Pb       6.48338751      13.01180383      13.04441093
I        9.86415112      12.64995965      12.82830341
I        6.88965009      16.24986991      12.93768061
I        6.27116743      13.09291618      16.27713588
C       10.02529322      16.47390963      15.92413695
H       10.20801626      17.00045827      14.98283391
N       10.97137135      16.48250719      16.83867477
H       11.83056910      17.00532525      16.69847427
H       10.88969297      15.94647548      17.70218692
N        8.87295668      15.85710327      16.08046910
H        8.59328565      15.45732035      16.97626489
H        8.18328039      15.86516293      15.32858505
Pb       6.68398077      13.11493816      19.60691234
I       -3.20873053       6.56665485       6.24004409
I        6.95712752      16.33633127      19.50365680
I       -6.60199604       6.57746477       9.76999880
C       -3.03724960       9.53833138       9.54328471
H       -3.05388765       8.81899578       8.71901939
N       -4.01650624      10.41426331       9.62819420
H       -4.75778661      10.43186043       8.93093071
H       -4.03118307      11.12540830      10.36111474
N       -2.03741412       9.48907923      10.39848839
H       -1.98030947      10.11963277      11.19761077
H       -1.31259739       8.77811964      10.31597730
Pb       6.82725664      19.51996545      12.94420459
I       10.02760479      19.41368362      12.93903131
I       19.84725213      16.46307383       0.06667152
I        6.72578284      19.59600745      16.26800599
C       10.35402075      22.76883402      16.19893858
H       11.35842738      23.06076488      15.88140985
N       10.03612191      21.49032067      16.18660122
H       10.73477805      20.78922697      15.94991641
H        9.08719046      21.15882124      16.37627706
N       22.46815871      17.36347390       3.54271243
H       21.56304459      17.13927903       3.95583261
H        9.55004191       5.15962491      10.07295516
Pb       6.71501985      19.58771124      19.49970429
I        9.94125380      19.46732172      19.46048246
I       20.03004857      16.46277087       6.41875616
I       -6.70991162      13.04823950       9.77876648
C        9.92069093       9.92302864      -3.23244234
H        9.96587756      10.76279843      -3.93035263
N        9.74082356      10.16944345      -1.95027508
H        9.69658043      11.12167062      -1.58543467
H        9.65013732       9.40597206      -1.28073793
N       -2.92159977      15.04952821       9.31262495
H       -2.84279046      14.25382730       9.94626224
H       -2.79068727      14.86325188       8.32030518
Pb      13.21718985      13.10406552       0.01409751
I        3.49742904      19.15792098      12.89543208
I        0.27898033       3.18974953       6.57719961
I       12.85309595      13.07172309       3.28188832
C       16.46612346      16.61697767       2.97881790
H       16.52898053      16.98443084       1.95143011
N       17.41706079      16.95839239       3.82251830
H       18.15569376      17.60693735       3.55156257
H       17.42679921      16.63368081       4.78665502
N       15.45121613      15.84360386       3.30657523
H       15.28757114      15.54818311       4.26969747
H       14.72962564      15.62835541       2.62185041
Pb      13.04182264      13.09162215       6.57656880
I       16.35224175      13.03087271       6.29700645
I       13.49830062      16.32791053       6.56558429
I       13.15144749      13.13252356       9.78880097
C       16.50152932      16.75328671       9.73288443
H       15.97890264      17.63062917       9.34223135
N       15.78951821      15.68546547      10.03193571
H       14.79046136      15.65074962       9.85904351
H       16.18382826      14.92535035      10.59032142
N       17.80880238      16.80853720       9.87202186
H       18.35114665      15.97050088      10.09640114
H       18.32687141      17.66890236       9.69118405
Pb      13.10953392      13.11874426      13.05918681
I        3.28740230       6.76640306      -0.02897357
I       13.17914659      16.35601954      13.29905197
I        0.00010312       6.35863619       3.26852696
C        3.52282649       9.72307017       3.19015921
H        4.43022258       9.99134429       3.73781049
N        3.43975869      10.03611246       1.91409126
H        4.23941041      10.42160529       1.41490750
H        2.59224539       9.84017463       1.37304098
N        2.54626153       9.12553419       3.84865690
H        1.74580145       8.72278376       3.35962582
H        2.65048271       8.87107550       4.82663915
Pb      13.25423370      19.63980462      12.96408268
I       16.54332819      19.77175651      12.54934155
I       13.11275465      22.85619994      12.87627604
I       13.36914406      19.64956362      16.26469658
C        3.27737280      16.56778997       3.10937404
H        3.51740999      17.61439905       2.90308359
N        2.08658917      16.27516045       3.58754592
H       14.51995848      23.68361820      16.76670399
H        1.76790056      15.30957454       3.69923782
N        4.20304053      15.65941199       2.87416220
H        4.09384302      14.69309979       3.17242913
H        5.07472801      15.90780960       2.40754052
Cs       3.40602009      16.34326570       9.69545002
