233
Lattice="-12.957396986651146 6.351727325886291 13.017959588757243 13.11604327292129 6.668741413988977 13.017959588757243 13.195366416056363 13.17897578392661 -6.508979794378622" Properties=species:S:1:pos:R:3 pbc="T T T"
Pb      -6.39819368       6.33321349      13.15694253
I       -3.13563220       6.78616570      12.94405718
I       -6.50123548       9.65365178      13.03431618
I        6.60499266      19.34580609       9.84685148
C       -3.39078422       9.94339605      16.20939667
H       -4.01440946      10.84046911      16.14596434
N       -3.65947190       9.06686563      17.15384633
H       -4.43039188       9.21654505      17.80507001
H       10.09759230      21.40397288      10.77497379
N       -2.40863837       9.79954149      15.34546200
H       -1.81501779       8.96776375      15.34987827
H       -2.26262109      10.47815029      14.60167346
Pb       0.31634077      19.47528833       6.53811677
I        3.56838412      19.13605641       6.68437388
I       13.39901859       9.85977279      13.14128871
I       13.31981177      13.12332238      -3.23774751
C        3.46575643       3.34089643       3.34723077
H        4.36496869       3.74548626       3.82104466
N        2.34791883       3.32100881       4.04502317
H        2.29717720       3.74094987       4.96737906
H        1.52728520       2.81727238       3.71453825
N        3.54884569       2.88703464       2.11516535
H        2.71853354       2.60248647       1.59317226
H       -8.52829588       9.28114703      14.61322844
Pb       0.05301091       6.50049612       6.45124397
I        3.30574309       6.43914614       6.21835057
I        0.34184221       9.75275029       6.30502448
I        0.23120570       6.59402340       9.74682765
C        3.10547827       9.75043291       9.93261592
H        2.25114030       9.85414442      10.60900157
N        3.93115772       8.74733840      10.13201818
H        3.79554056       8.10425936      10.91432625
H        4.77880467       8.62751235       9.57440421
N        3.24929630      10.62681871       8.96341824
H        4.01281361      10.55240121       8.28516617
H        2.58649938      11.39140469       8.85551987
Pb       0.12800574       6.58438092      12.96750771
I        3.40666057       6.50541450      13.09696057
I        0.28037278       9.80804106      12.82787358
I       12.88050911      19.81576620       9.75156872
C        3.33713549       9.93528036      16.55471034
H        2.88555893       9.55138520      17.47492169
N        4.62041930       9.72893922      16.34508755
H        5.18635050       9.24593653      17.03892336
H        5.06093562       9.90651138      15.43374241
N        2.56594598      10.58386268      15.70448604
H        2.95321926      11.09800143      14.90741730
H        1.58347807      10.73815365      15.90627816
Pb       0.20854944      12.97702497       6.44287367
I        3.47726966      13.38214091       6.54429273
I        0.27699721      16.23255355       6.53407740
I        0.38090256      13.04148285       9.72523933
Pb       0.11776640      13.04939711      12.92967755
I        3.38054062      13.12572707      13.09841572
I        0.50281598      16.27569139      12.85010701
I       -0.19904745      13.15456206      16.23096844
C        3.38886482      15.99384569      16.27526334
H        3.78697962      15.04024901      15.91692745
N        4.24311197      16.92634792      16.64614817
H        5.24218583      16.79180592      16.54297616
H        3.94106044      17.76577785      17.13978157
N        2.08231686      16.15596809      16.32281243
H        1.65664963      17.07772303      16.47047014
H        1.45484891      15.39853856      16.05478264
Pb       0.16843908      12.96942666      19.47227625
I        3.36298730      13.01517612      19.41657038
I       13.09651635       9.91122707       6.80244872
I        0.28778908      13.29504625      22.75982974
C        3.55456293      16.27733579      22.92973168
H        4.40532410      16.89106436      23.23472467
N       15.31490203      10.47616591       9.89314219
H       15.16963088      11.43518083      10.19689021
H       14.50183960       9.96494920       9.55057007
N        3.76666462      15.01828459      22.60035797
H        3.00073060      14.41696216      22.29511384
H        4.70061620      14.61060296      22.61581468
Pb       6.49513235       6.55084632      -0.05673916
I       -3.13719438      12.72121048      12.82553875
I        6.49974069       9.77400314       0.33886257
I        6.52767633       6.46333174       3.23845482
C        9.73461605      10.02691777       3.22973963
H        9.26342618      10.95940271       2.90546373
N        9.69647600       8.99437725       2.41465957
H        9.16056508       9.02781020       1.55228788
H       10.22034280       8.14114930       2.61086769
N       10.31446789      10.00128792       4.41072167
H       10.71737578       9.14576138       4.79109925
H       10.32856759      10.82893854       5.00797210
Pb       6.55835373       6.64167403       6.39011145
I        9.80387194       6.50209857       6.31838894
I        6.31164116       9.88766290       6.85859245
I        6.95006269       6.86582446       9.83296660
C        9.81290000      10.11373113       9.61982694
H       10.53665479      10.92424035       9.49500441
N        8.67592596      10.37279243      10.23268261
H        8.45852685      11.30701132      10.56905162
H        7.98433538       9.64041534      10.39273581
N       10.11867456       8.92066005       9.15522171
H        9.44686288       8.15232512       9.19370114
H       11.00284028       8.75589954       8.68025004
Pb       6.71445231       6.63213476      13.07788263
I        9.94821905       6.73312582      13.23376488
I        6.50758534       9.89176350      13.22879749
I       20.07599361      19.89861808       9.86902631
C        9.78431323       9.75459333      16.30101533
H        9.07452171       9.44980540      15.52729150
N       -3.73820620       3.12652565       4.53685960
H        8.43129396       9.53864685      17.82576458
H       -3.09323771       3.38809950       5.28347052
N       -2.10455928       3.40833652       2.92765915
H       -1.42119710       3.70459990       3.62428345
H       11.33697067      10.01113543      14.98242200
Pb       6.67320295      12.98693051       0.07089588
I        9.94066453      12.85089023       0.11766243
I        6.39376336      16.25273134       0.19185488
I        6.93237920      12.97114439       3.35881632
C       10.29848086      16.18351528       3.24235874
H       11.23591983      15.62078686       3.20553242
N        9.34642161      15.86241985       2.39034797
H        9.46222158      15.07759685       1.74945681
H        8.45095924      16.34788340       2.37935355
N       10.18182866      17.15081701       4.12580200
H        9.33890352      17.72212798       4.19645555
H       10.93102916      17.33941846       4.78807829
Pb       6.76689754      13.15777341       6.64033057
I        9.97005105      13.03238150       6.60781932
I        7.16607934      16.35302198       6.56075390
I        6.50259287      13.53649660       9.87789364
C        9.78489910      16.26197354       9.73442023
H        9.23893549      15.44996014       9.24546086
N       10.05131918      16.14984512      11.01994302
H        9.85056343      15.28591409      11.52445214
H       10.46389358      16.91837225      11.54976013
N       10.13870214      17.30320372       9.01205731
H       10.76638609      18.02863558       9.36978266
H        9.84183177      17.39296985       8.04488339
Pb       6.59994071      13.17076810      13.13214237
I        9.86203413      12.91861209      12.94180254
I        6.53571589      16.38901703      13.25873073
I        6.83466836      13.53440980      16.36432174
C       10.24451048      16.49225538      16.31965710
H       11.18100233      17.04133439      16.45013375
N        9.43626387      16.37107975      17.35232755
H        9.64631793      16.83001628      18.23463048
H        8.61398642      15.76715565      17.31969217
N        9.97868845      15.98397291      15.13400541
H        9.08429719      15.54017042      14.92611875
H       10.65848266      16.06255687      14.37961195
Pb       6.62840991      13.10624005      19.55751947
I       -3.21759641       6.44055620       6.60539884
I        6.68368940      16.28626527      19.88487165
I       -6.22838903       6.19332206       9.81908189
C       -3.08093360       9.90466348       9.74610203
H       -2.61674207      10.78063582      10.20782765
N       -4.30929330       9.58841592      10.10432133
H       -4.79986952      10.10476971      10.83079702
H       -4.77492660       8.75492691       9.74304395
N       -2.39352608       9.21627638       8.85856790
H       -2.79218539       8.40744178       8.36847001
H       -1.45559651       9.49370844       8.58261573
Pb       6.70664795      19.59676343      13.12167408
I       10.03055185      19.51598738      13.09425299
I       19.57663106      16.56543372      -0.02766092
I        6.63768370      19.73094614      16.36739040
C       10.25336334      22.79030372      16.12179323
H       11.08666110      22.72734169      15.41627745
N       22.16468011      17.17088010       2.77761577
H        8.94174701       4.50834368       8.41157212
H       21.37194327      17.27674302       3.40864955
N       10.33562253      22.13556068      17.26087729
H        9.57194112      22.13702005      17.93745336
H       11.14765358      21.56163843      17.47171214
Pb       6.85609015      19.53451456      19.61621209
I       10.09456427      19.38848603      19.66014387
I       19.91931167      16.51737479       6.35083720
I       -6.16110471      13.36069052       9.77415014
C       10.06680498       9.53654075      -3.37152340
H       -3.15529063      14.82982259       9.72189501
N       -1.65367706      16.25567808       9.90510986
H       -0.94203398      15.56236057      10.12659589
H       11.60690906      10.87998330      -3.14303894
N        9.11667047      10.38899436      -3.69886652
H        9.31250957      11.37312564      -3.87816940
H       21.30245599      16.72724644       9.08402381
Pb      13.20891450      13.13019226       0.04564524
I        3.47726547      19.58808871      13.02386264
I       -0.37258553       3.24562577       6.45793825
I       13.22174028      13.02265001       3.30919377
C       16.71995429      16.42565148       3.16753513
H       17.54907542      15.96830495       2.61854311
N       16.28379518      17.60436729       2.77558073
H        3.45031705       4.87426518       8.44279157
H       15.47880496      18.06652933       3.21316214
N       16.21833466      15.77410165       4.19545200
H       15.40975476      16.12223870       4.72233064
H       16.59825185      14.87644123       4.48662869
Pb      13.18942853      13.13701822       6.56117182
I       16.51048671      12.98272725       6.65066001
I       13.21504860      16.46174878       6.28049853
I       12.86001807      13.35869659       9.77744825
C       16.41282849      16.51334469       9.95609020
H       15.85114616      16.90819264      10.80713679
N       15.91326473      15.49663188       9.28566139
H       15.03435089      15.05840770       9.56134696
H       16.42240732      15.03815139       8.52686943
N       17.55940344      17.08574624       9.64728043
H       18.11499598      16.77356705       8.85108383
H       17.90167300      17.89030811      10.16712559
Pb      13.15634999      13.12695775      13.02873356
I        3.27475430       6.46043249      -0.42176355
I       13.15103731      16.39907298      13.06707879
I        0.12443909       6.61884194       3.21190921
C        3.20873789       9.76129048       3.33875065
H        2.38020908       9.61407359       4.03795698
N        4.19923724      10.54955326       3.70513351
H        4.21152270      10.99211771       4.61921424
H        4.99652104      10.72809949       3.09433039
N        3.16762599       9.14872008       2.17532462
H        3.93126683       9.23786820       1.50208862
H        2.38221634       8.55678789       1.91890526
Pb      13.29424761      19.69005070      13.00642863
I       16.55749612      19.50404164      12.69227926
I       13.39397856      22.94074004      12.90852689
I       13.32631432      19.80362513      16.25827225
C        3.44628789      16.25629242       2.96654983
H        3.89541728      16.71345741       2.07983888
N       15.47438622      23.46942031      16.48831303
H        1.86930833      11.13678477      22.60238470
H        1.90534410      16.43420075       4.31273374
N        4.01457948      15.18481892       3.47498879
H        3.65532996      14.73061609       4.32398426
H        4.86953550      14.79070582       3.08548684
Cs       3.61539318      16.49183910       9.91885051
