233
Lattice="-12.957396986651146 6.351727325886291 13.017959588757243 13.11604327292129 6.668741413988977 13.017959588757243 13.195366416056363 13.17897578392661 -6.508979794378622" Properties=species:S:1:pos:R:3 pbc="T T T"
Pb      -6.47116003       6.44374297      12.96917627
I       -3.21152955       6.62013191      12.92298754
I       -6.50873102       9.67222504      13.08423875
I        6.31072790      19.60955863       9.76515056
C       -3.36779457       9.58297998      16.03655576
H       -4.16418931      10.08473133      15.47860020
N       -2.21476257      10.20398827      16.17828217
H       -2.04197783      11.10529451      15.74000066
H       -1.45993662       9.79935723      16.73297621
N       -3.60803802       8.38811675      16.53675552
H       10.32144938      21.02357993      10.48225535
H        8.67317453      21.12530763       9.93127001
Pb       0.35213930      19.50173116       6.53525055
I        3.50379349      19.59662861       6.27303746
I       12.99069976       9.85136589      12.73897220
I       13.61048517      13.15855437      -3.23422726
C        3.54622048       3.27060581       3.38900606
H        4.49318408       2.99088867       2.91674887
N        2.85177651       4.25350275       2.85870093
H        3.18747182       4.76150561       2.03761364
H        1.96877854       4.58354275       3.25997141
N        3.16014422       2.60837875       4.45944384
H        2.27844810       2.82206102       4.93684708
H       16.89088764      14.99788828      -1.69729110
Pb       0.00943341       6.52967803       6.56811310
I        3.32299014       6.34777821       6.77899285
I        0.14335805       9.75822549       6.80660633
I       -0.27881244       6.59003344       9.80182309
C        3.30760746       9.89650309       9.77592741
H        2.52411038      10.43922942       9.23861310
N        4.45026994       9.67024618       9.16002163
H        4.63189248      10.02322923       8.22367109
H        5.16300010       9.05973906       9.56685665
N        3.06333363       9.49311708      11.00539959
H        3.79664996       9.07878478      11.58255118
H        2.16948444       9.67099557      11.46727812
Pb      -0.03256854       6.56383055      13.05620278
I        3.38923151       6.27692469      12.94883039
I        0.31755904       9.84199825      13.35011349
I       13.13783135      19.91799663       9.84028582
C        3.63200614       9.79741227      16.40970150
H        4.65071682       9.95659067      16.77177925
N        3.32112009       8.61805763      15.91219359
H       17.23007906      21.07694979       9.31529926
H        2.35939994       8.37009263      15.67524957
N        2.77426606      10.79377876      16.48614572
H        1.86372261      10.75458679      16.03063586
H        3.00290644      11.64539027      16.99357794
Pb       0.19648992      12.98641738       6.64305047
I        3.42484189      12.88744350       6.65043046
I        0.58090779      16.22324427       6.73148053
I        0.50437641      13.01862624       9.87443190
Pb       0.24790002      13.10658921      13.12637472
I        3.44986754      13.49061926      13.15919007
I       -0.05711295      16.29685812      12.69296902
I        0.06585442      13.28061286      16.33100164
C        3.47201469      16.40728371      15.98255991
H        3.75543070      16.51583429      14.93249452
N        3.05237087      17.47271521      16.63086130
H        2.97176559      18.36633190      16.15490484
H        2.72170502      17.42128510      17.59340364
N        3.57036022      15.21769104      16.53396238
H        3.33286352      15.03698932      17.51071238
H        3.91626153      14.43088595      15.99088264
Pb       0.04844306      12.98859226      19.53586948
I        3.40948204      13.03630739      19.44041202
I       13.34920579      10.01659423       6.30908557
I        0.12907797      12.76736458      22.81173521
C        3.37105947      16.25050362      23.03602428
H        3.60386228      15.74063198      23.97581717
N        2.79554637      15.55424485      22.07627464
H        2.55620123      14.57662596      22.21125983
H        2.43483710      15.99677518      21.22826413
N       16.65109425      11.16911623       9.89085628
H       16.51054274      11.68244707       9.01642520
H       17.02825109      11.69235698      10.67913911
Pb       6.70826321       6.52053999       0.01655638
I       -3.02743150      12.75276412      13.27727518
I        6.64539736       9.86745048      -0.20394345
I        6.56990738       6.49229371       3.28679664
C        9.94405946       9.85484666       3.57403475
H        9.96798771       9.38426723       4.56051690
N       11.06705774      10.33320150       3.07921408
H       11.93136170      10.26633303       3.60928045
H       11.10199877      10.77914307       2.16232346
N        8.79362861       9.90622201       2.93547083
H        8.71115469      10.29270393       1.99562935
H        7.94946453       9.54279439       3.36843808
Pb       6.63280378       6.47997750       6.49897173
I        9.84191336       6.79120867       6.47720001
I        6.59917311       9.79770982       6.12505932
I        6.82191322       6.78893013       9.78901267
C       10.03776813       9.99291748       9.81716027
H       10.94820739      10.56827819      10.00833003
N        9.77528516       8.96355816      10.59243524
H       10.38926203       8.72356643      11.36678529
H        8.94735303       8.37762780      10.44336779
N        9.25673009      10.36752534       8.82525156
H        8.41477777       9.84894206       8.58069050
H        9.48703989      11.17978352       8.24652301
Pb       6.61559020       6.55684759      13.04242401
I        9.91307860       6.54132506      13.35003270
I        6.33975541       9.78708416      12.94230846
I       19.86562959      19.95709678       9.78378254
C       10.12313143       9.79873392      16.25209563
H       10.88202755      10.30546495      15.64887217
N        9.12125326      10.50674831      16.72709762
H        9.03696460      11.50144029      16.53738501
H        8.44421843      10.11542315      17.39252246
N       10.25158889       8.50363898      16.46824389
H        9.60557241      14.47712266      -2.58454912
H       -2.05142198       1.32199861       3.11314887
Pb       6.70816780      13.09595777       0.00789834
I        9.92391099      12.91764696       0.15199720
I        6.79333580      16.36753917      -0.14343238
I        6.61570457      13.40336485       3.25280597
C       10.22437438      16.37807235       3.10681480
H       11.26358119      16.68685952       3.24875818
N        9.40045972      17.22035016       2.51532179
H       -3.46278024       4.92165642       8.63545775
H        8.43546396      16.96843172       2.30871575
N        9.84850955      15.19843394       3.55139191
H        8.89166154      14.84490333       3.44019468
H       10.52710810      14.56376255       3.96577371
Pb       6.60081503      13.09955712       6.47435726
I        9.93981784      13.18845017       6.65328432
I        6.53167495      16.33636755       6.65785885
I        6.33510647      13.19129831       9.73429980
C       10.06148078      16.31556891       9.50871708
H       10.39685580      16.01313345       8.51231977
N        8.77724810      16.53454317       9.70498805
H        8.11125348      16.43227843       8.93771298
H        8.38379565      16.61254571      10.64879633
N       10.96791536      16.45946983      10.45434422
H       10.74985085      16.92142425      11.33619136
H       11.93236590      16.18769930      10.29718051
Pb       6.65652925      12.98392165      12.90156655
I        9.91320323      12.89567251      12.80147235
I        6.86159711      16.29642445      12.87168590
I        6.76377408      13.27082340      16.19592808
C        9.81691366      16.25497415      16.23241398
H        8.83239283      16.00827918      16.63965889
N       10.06538688      15.97920008      14.96859482
H        9.35133560      15.57535263      14.36690749
H       10.99200199      16.13187423      14.55627863
N       10.70804452      16.80731999      17.03271039
H       11.59119694      17.17908279      16.67820582
H       10.49143868      17.01406429      18.00255171
Pb       6.67276604      13.19630471      19.41353998
I       -3.19967081       6.71315120       6.43551622
I        6.68810529      16.40766033      19.52099038
I       -6.64668017       6.32986187       9.72027178
C       -3.06796999       9.66777991       9.99793269
H       -2.60125294       9.12827386      10.82725832
N       -4.07666978       9.09563168       9.37455798
H       -4.41997054       8.17886137       9.65125651
H       -4.54999901       9.53487879       8.58077255
N       -2.60167816      10.85822203       9.67447086
H       -2.94984621      11.36904737       8.85715003
H       -1.79717953      11.26147968      10.14846417
Pb       6.71482454      19.50230517      13.02397108
I        9.98635910      19.39998956      13.06055191
I       19.89789664      16.44379260      -0.11830567
I        6.53108574      19.57601843      16.26430265
C       10.21710903      22.88951247      16.05598336
H       10.92772463      22.97049588      15.22687424
N        9.22440376      22.03161515      15.94746692
H        9.11135350      21.46161373      15.11304090
H        8.51460890      21.94006804      16.67519583
N       10.40653850      23.64519615      17.11629358
H        9.75016364      23.63900551      17.89877008
H       11.17449652      24.31482911      17.14308768
Pb       6.76480350      19.63963393      19.53995298
I       10.02015782      19.56785859      19.62052401
I       20.18280936      16.50616052       6.27778758
I       -6.15626949      12.94311009       9.77964281
C        9.81903812       9.75863832      -3.43009957
H        9.03756202       9.80436063      -4.19520529
N       -3.12600747      15.08095192      10.40790098
H       -3.85165231      14.36582345      10.35344162
H       -2.44838622      15.01223599      11.16713678
N       10.70089053      10.73356774      -3.38234152
H       -1.49991428      17.08890609      10.32272787
H       10.67119144      11.48665766      -4.07054397
Pb      13.19010011      13.23020072       0.05683145
I        3.45706618      19.13953249      13.20115262
I        0.01290253       3.24535408       6.42350146
I       13.22513491      13.56043064       3.28648459
C       16.36836272      16.26752957       3.35176194
H       16.41010899      15.42820968       4.05187150
N       17.27396277      16.33372491       2.39785576
H       17.99874408      15.62391167       2.32212977
H       17.25969554      17.07584160       1.69539225
N       15.41589479      17.16329213       3.50408864
H        2.14335941       4.79597221       9.40016608
H       14.73511372      17.08423888       4.25685021
Pb      13.18366688      13.28234721       6.57562404
I       16.45831637      13.37015613       6.79716728
I       13.10529986      16.52990030       6.64952486
I       13.20754957      13.35213022       9.79776065
C       16.26838922      16.53140966       9.63286638
H       16.17430210      16.07834856       8.64244217
N       16.06083038      15.77117647      10.68850248
H       15.74038553      14.81248716      10.59117425
H       16.08576448      16.14810046      11.63205789
N       16.60706492      17.80131404       9.72011067
H       16.68342781      18.27672458      10.62082727
H       16.71885018      18.35786197       8.86935986
Pb      13.09912286      13.06007547      13.05042369
I        3.39539356       6.45502882       0.04017283
I       13.36918173      16.39593372      13.28898478
I       -0.16824510       6.29094286       3.28416173
C        3.35644598       9.92121749       3.25184450
H        2.78700659      10.69919707       2.73581767
N        4.39243450       9.38549983       2.64089228
H        4.69130007       9.69086706       1.71529903
H        4.91781608       8.60380433       3.04721086
N        2.96726013       9.55233945       4.45619050
H        3.49867959       8.87743073       5.00494380
H        2.16249917       9.97566648       4.91634581
Pb      13.25085898      19.67034091      13.10537508
I       16.51507976      19.83796103      13.15789483
I       13.06030925      22.94160904      12.96254254
I       13.31828278      19.43757968      16.36956745
C        3.38744792      16.46208238       3.37645596
H        3.38811145      17.28734040       4.09542067
N        2.70404598      15.37637432       3.66929465
H        2.17414018      15.31430793       4.53673764
H        2.66798560      14.57761303       3.03695869
N       17.18016081      23.27473169      15.27416890
H       17.23653130      22.52308535      14.58742996
H        4.51103595      10.94469353      21.59502219
Cs       3.44303642      16.22702453       9.72337515
