233
Lattice="-12.957396986651146 6.351727325886291 13.017959588757243 13.11604327292129 6.668741413988977 13.017959588757243 13.195366416056363 13.17897578392661 -6.508979794378622" Properties=species:S:1:pos:R:3 pbc="T T T"
Pb      -6.40687337       6.45222606      13.08277088
I       -3.12012189       6.66718578      13.11610997
I       -6.44452916       9.75420567      13.27449178
I        6.80339102      19.49012907       9.83082047
C       -3.11033000       9.57249233      16.01830822
H       -3.49139970       9.10463011      15.10537569
N       -1.96412374       9.15008566      16.50683742
H       -1.43794748       8.39901690      16.06265412
H       -1.56024125       9.54086814      17.36496549
N       -3.82041037      10.52950526      16.57744954
H       -3.49782766      11.03269738      17.40817778
H       -4.70517305      10.83801874      16.17943247
Pb       0.30123141      19.57265968       6.40944767
I        3.49931390      19.43371915       6.74480016
I       13.16032882       9.97787136      12.50215852
I       12.94388656      13.49631034      -3.30774931
C        3.36376460       3.34206775       3.25319720
H        3.32838283       4.02577142       2.40191486
N        2.81661423       2.15038082       3.13726630
H        2.45509543       1.80901193       2.25091957
H       15.98134143      14.68534295      -2.57604318
N        3.93139015       3.75785569       4.36919007
H        4.08719465       3.11844937       5.14799228
H        4.36575111       4.67491918       4.42659439
Pb       0.09312853       6.41126102       6.42337286
I        3.37542111       6.82418646       6.64690292
I        0.26655327       9.78258620       6.30097910
I        0.00366281       6.84617979       9.73311503
C        3.36033407       9.50981172       9.74755241
H        3.16849977       8.47068877       9.46738285
N        2.67006529      10.45433184       9.14599936
H        1.96668291      10.22952988       8.44313901
H        2.81225203      11.44213974       9.34660657
N        4.27649716       9.75825174      10.66089357
H        4.39145627      10.68976967      11.06165970
H        4.82215579       9.00671000      11.07289547
Pb       0.12689958       6.58013993      12.96384933
I        3.42135839       6.48524906      12.86200126
I        0.45789827       9.80727361      13.31373619
I       13.47672095      19.35647495       9.70300537
C        3.50742521       9.81525929      16.40104500
H        4.02930492       9.33053528      17.23083590
N        2.47424083      10.58315774      16.67536225
H        2.17155844      10.73167093      17.63299764
H        1.91222774      11.01994804      15.94386958
N        3.93907951       9.59857163      15.17624670
H        3.49159870      10.04145743      14.37445607
H        4.75517449       9.01698566      15.00486821
Pb       0.22533693      13.06460519       6.44338638
I        3.49716824      13.31205533       6.91074144
I        0.23827364      16.31753875       6.84296437
I        0.04825782      12.84423651       9.68536915
Pb       0.20478499      13.02049589      12.85877337
I        3.47475504      12.86625345      12.82129419
I        0.52957808      16.29482536      12.47943965
I       -0.01950446      13.22441632      16.17450335
C        3.50881696      16.16731626      16.37390703
H        4.09705345      15.30798690      16.70878675
N        3.87455619      17.37024494      16.76891500
H        4.68343114      17.50313210      17.36957979
H        3.29489475      18.18410017      16.56674326
N        2.47787830      15.95219404      15.58328602
H        1.89583010      16.71589788      15.24087769
H        2.18770855      15.00978836      15.33924203
Pb       0.14640334      13.24429858      19.39563880
I        3.41237906      13.39162681      19.39626278
I       13.11298357      10.05098686       6.32824804
I        0.38055348      12.87129135      22.73501634
C        3.62671095      16.12225797      22.83764012
H        4.49198261      15.58854871      22.43237242
N       16.70088587      10.35467577      10.99409772
H       -8.50547020       9.98735411      11.53166187
H       15.90665390      10.81339967      11.44012191
N       15.47557567       9.80199081       9.10816887
H       14.65747289      10.32015116       9.42576309
H        2.44549856      15.66115039      21.23957190
Pb       6.55184504       6.63036380      -0.03222227
I       -3.06069210      12.98940196      12.95168827
I        6.32127933       9.93001081       0.07902121
I        6.40344553       6.52290795       3.28720969
C       10.08150536       9.78919008       3.11190522
H       10.93323947       9.96323378       2.45015404
N        9.17443935       8.90620943       2.74890615
H        9.30634062       8.33910564       1.90941895
H        8.39133741       8.66199280       3.35491446
N        9.99596027      10.49042501       4.22278698
H        9.20648899      10.38432508       4.86627774
H       10.74664791      11.10886937       4.51433642
Pb       6.68544553       6.63979453       6.65900232
I        9.87422433       6.61489496       6.41054565
I        6.95816707       9.88867279       6.44273567
I        6.63913960       6.73169196       9.86001789
C        9.72146569       9.98983376       9.65717100
H        8.86222914       9.89216828       8.98687197
N       10.63688204      10.89023750       9.37003303
H       10.54067397      11.49194911       8.55085806
H       11.43675320      11.05975628       9.98129403
N        9.80026047       9.19379687      10.70344918
H       10.58049675       9.26383815      11.35856532
H        9.05800359       8.53548533      10.92261458
Pb       6.71615549       6.50312750      13.16744451
I        9.92552137       6.22243124      12.85881305
I        7.03972055       9.85315725      13.11577798
I       19.79700925      20.04683699       9.83905104
C        9.68678788       9.86699133      16.13031680
H        8.70156940      10.18722572      15.78195378
N       10.75069156      10.41642696      15.58121551
H       10.65920827      11.13266528      14.86331286
H       -1.42627557       3.51804493       2.87960295
N       -3.36649772       2.28321076       4.05665414
H       10.71912223      15.05579737      -2.16475391
H        8.98360297      15.03200358      -2.08713530
Pb       6.61268517      13.18993779       0.09728929
I        9.90953170      12.94102308       0.29373455
I        6.51871479      16.44527895       0.07051334
I        6.67484582      13.28031072       3.31648718
C        9.79010627      16.35999548       3.18280246
H        8.73430824      16.55608783       2.98063443
N       10.17951674      15.11106828       3.34499616
H        9.50863172      14.35006439       3.27658906
H       11.16124859      14.86182567       3.46605547
N       10.61428434      17.38623398       3.25889632
H       11.57424410      17.28490308       3.58521931
H       -2.90175902       5.14648362       9.56574571
Pb       6.70540647      13.17102572       6.57160044
I       10.00532407      13.17437074       6.49407841
I        6.61182055      16.40464487       6.51441469
I        6.82226016      13.25733537       9.80626389
C       10.05643105      16.63989905       9.81134890
H       10.49125080      17.56377609       9.42100236
N        9.97567252      15.59805560       9.00842171
H       10.35546621      15.62812471       8.06702711
H        9.43197295      14.77265207       9.26071785
N        9.64209513      16.61361705      11.06113798
H        9.31207268      15.75268280      11.49906487
H        9.69758070      17.44786164      11.64788553
Pb       6.73590343      13.09126997      13.06854976
I       10.00017662      13.24797706      12.93224424
I        6.36398504      16.36805103      12.96931223
I        6.72055879      13.28469636      16.28492463
C       10.04196955      16.25835621      16.40004815
H        9.68734472      15.90157141      17.37127194
N        9.19570843      16.25376399      15.38843098
H        8.27726145      15.82674353      15.46856449
H        9.41348092      16.74321936      14.52277436
N       11.28241459      16.68659271      16.29757369
H       11.72753633      16.83858765      15.38516334
H       11.89392426      16.70108399      17.11643768
Pb       6.69335910      13.15640707      19.55231258
I       -3.14442963       6.32469810       6.38525795
I        6.88676499      16.42252012      19.36167005
I       -6.45101498       6.56141584       9.81258189
C       -3.16720820       9.92317290       9.75425240
H       -3.64269181      10.86593563       9.46869446
N       -2.67156351       9.81891747      10.96937449
H       -2.70591359      10.61118305      11.61171843
H       -2.36722220       8.92083802      11.34792219
N       -3.11955384       8.95410329       8.86335756
H       -2.52223353       8.13769644       9.00216230
H       -3.59373431       9.03671578       7.96892189
Pb       6.73903606      19.64941591      13.07463015
I       10.02729053      19.54109061      13.29199989
I       19.87384708      16.54201788       0.20903950
I        6.66889473      19.90928678      16.35044865
C        9.95611676      22.73537241      16.15686896
H        9.83861874      21.91468251      15.44161444
N       10.96035895      23.57053553      15.98961419
H       11.59749623      23.47833954      15.19943411
H       11.10076709      24.36975561      16.60747134
N        9.09167859      22.83638657      17.14226092
H       22.14114824      17.20622117       4.84343866
H        8.31425927      22.18461222      17.22376956
Pb       6.92002507      19.64527818      19.57695506
I       10.13220398      19.45483408      19.27692348
I       19.75488123      16.53718397       6.92828572
I       -5.95346441      12.90060725       9.80654834
C        9.74590448       9.79306139      -3.09451610
H        8.91751269       9.41799693      -2.48695888
N       10.18265279      11.01793086      -2.87416526
H        9.83879808      11.56737403      -2.08647402
H       10.97121181      11.41273512      -3.38887981
N       -2.71122701      15.35938281       8.99322701
H       -1.91013483      15.64377476       8.42124503
H       -3.07811146      14.42430819       8.84129719
Pb      13.18164426      13.16188367      -0.04644606
I        3.49242889      19.75450202      12.79270980
I        0.11157330       3.23294086       6.65382839
I       13.50611928      13.02172957       3.19647861
C       16.42986763      16.37356785       3.24888564
H       16.14201550      15.42795295       2.78356768
N       16.90405376      17.33376172       2.47916686
H        3.83329121       4.01628127       7.99229611
H        4.08294066       5.01893584       9.37622319
N       16.28010851      16.51319135       4.54943290
H       16.45481678      17.40938676       5.02122693
H       15.93616809      15.74372530       5.11873692
Pb      13.31923853      13.28566071       6.54434797
I       16.54708175      13.33974676       6.69488810
I       12.90750887      16.48462664       6.24817644
I       13.45255698      13.26008460       9.74038141
C       16.51502649      16.27414693       9.85629257
H       16.93886404      15.29775514      10.10569511
N       16.21334573      16.52318700       8.59882434
H       16.38153080      15.81234380       7.88764269
H       15.89914329      17.44391693       8.29303906
N       16.32819548      17.14035428      10.82824247
H       15.79530178      18.00017670      10.68335618
H       16.61776481      16.92274597      11.77587879
Pb      13.28387694      13.29773825      13.01652649
I        3.37711666       6.84021081      -0.13892732
I       13.30835939      16.52280419      13.23642359
I        0.36675236       6.19274969       3.21300576
C        3.17618331       9.97618083       3.34365754
H        2.22139172      10.07860329       3.86697422
N        3.99921937       9.02753437       3.73091921
H        3.76905293       8.40307407       4.50568709
H        4.88332946       8.85120200       3.25277611
N        3.45242525      10.80833089       2.36270113
H        4.28888270      10.69181380       1.78297590
H        2.80995104      11.55718679       2.11649090
Pb      13.31413354      19.76907210      13.02733200
I       16.50635804      20.18715573      12.86617753
I       13.18053541      23.05179584      12.97001549
I       13.64948015      19.93171271      16.20584739
C        3.72406340      16.28174978       3.22972174
H        4.75418915      15.92229011       3.15883700
N        3.11472732      16.21126049       4.39553970
H        3.58426162      15.82556913       5.21071243
H        2.13612027      16.47082893       4.50838850
N       16.26869457      23.43086829      15.16347041
H       15.32617854      23.82134849      15.18207515
H       16.77789420      23.46244585      14.28521598
Cs       3.69871858      16.36547054       9.80322145
