233
Lattice="-12.957396986651146 6.351727325886291 13.017959588757243 13.11604327292129 6.668741413988977 13.017959588757243 13.195366416056363 13.17897578392661 -6.508979794378622" Properties=species:S:1:pos:R:3 pbc="T T T"
Pb      -6.37121193       6.52774607      12.93288497
I       -3.12918109       6.32798643      13.35870837
I       -6.33984166       9.77278632      12.99929722
I        6.74734407      19.43262201       9.70174006
C       -3.06807360       9.53341400      16.12600683
H       -2.59578742       8.60126621      15.80345441
N       -4.38510372       9.59366366      16.15910847
H       -4.94689856       8.78191799      15.91171972
H       -4.87446500      10.48608584      16.27029665
N       -2.29426043      10.54643359      16.46148448
H       -2.66278163      11.34409022      16.98558533
H       -1.28393112      10.46607215      16.41182963
Pb       0.32236586      19.49807810       6.58620341
I        3.57845750      19.49395958       6.38632752
I       13.26753797       9.97380261      13.07850062
I       13.68760580      13.17044141      -3.22641778
C        3.01045356       3.27309951       3.18523879
H        2.03292168       3.37181095       2.70398864
N        3.31904182       4.09451163       4.16444323
H        2.67353490       4.82522888       4.45329222
H        4.16867516       3.97113502       4.72523936
N       -9.12958787       8.69160602      15.76499312
H       -8.22219722       8.52357944      16.19811370
H       -9.39273815       8.06284055      15.00526421
Pb       0.18633769       6.67230952       6.45212768
I        3.40379237       7.06458702       6.50528755
I        0.04984811       9.84470856       6.08971966
I        0.46407990       6.72867218       9.72747993
C        3.31841949       9.93294339       9.82554627
H        3.95727732      10.82045564       9.81071755
N        2.03457009      10.07103083       9.56640571
H        1.61232199      10.98472798       9.40339772
H        1.41797940       9.25324780       9.54757108
N        3.86545668       8.76379073      10.09360035
H        3.29459830       7.92158491      10.14976381
H        4.85278469       8.67359157      10.31807150
Pb       0.09754621       6.57350231      12.99588019
I        3.39172096       6.46633455      13.03839755
I       -0.00870526       9.83976777      13.27315994
I       13.45090956      19.72473948       9.72287777
C        3.75530147       9.71330227      16.32526130
H        4.70487985       9.17143016      16.36214455
N        3.50812957      10.60437601      17.26144293
H        4.16568285      10.74868453      18.02546139
H        2.63934591      11.13721157      17.28237515
N        2.93019288       9.45042599      15.33535071
H        2.00695603       9.88012814      15.26483692
H        3.13300776       8.70979981      14.66354406
Pb       0.15929889      13.06376696       6.46297708
I        3.39344046      13.06193044       6.90515429
I        0.51723608      16.29442592       6.74030072
I       -0.32957118      12.88195003       9.77902980
Pb       0.20169997      13.07639311      13.07744821
I        3.50519794      13.43374434      12.76503486
I        0.23085742      16.33697325      12.84073086
I        0.52732582      13.36924763      16.33083667
C        3.48059622      16.28625045      16.13625293
H        2.82076521      15.92126886      15.34337329
N        4.65433135      15.70955260      16.28983755
H        4.94324158      14.92733883      15.70832152
H        5.29163352      15.98192164      17.04560801
N        3.05835761      17.27513282      16.89475277
H        3.61464880      17.64868112      17.66574448
H       15.12995404      11.39807198       3.68046115
Pb       0.22816440      13.11822278      19.64196021
I        3.43335067      13.31214456      19.90549515
I       12.85384775       9.95106254       7.08137542
I       -0.14489990      12.70065319      22.85851174
C        3.53743992      16.23379632      22.81976520
H        3.19414764      15.19886073      22.73845293
N       15.64636678      10.79064114      10.24417016
H       14.72363218      10.52907247      10.57814677
H       15.92099570      11.76330886      10.36884103
N        4.76724274      16.51883390      22.45002671
H        5.15755301      17.46278779      22.51877927
H        5.40188584      15.77841521      22.15432039
Pb       6.74416521       6.72439491      -0.02395767
I       -3.00419277      13.11727105      13.24770034
I        7.08902540       9.97455337      -0.14211192
I        6.68432697       6.55141396       3.24239283
C        9.67316122      10.01053084       3.16856857
H        8.62383161      10.24628795       3.36075989
N       10.18261805      10.32651817       1.99762265
H        9.59625572      10.72649594       1.26868887
H       11.16165359      10.15946040       1.75722531
N       10.37125903       9.43976956       4.13028458
H       11.32152040       9.10502855       3.97427004
H        9.93421974       9.20297861       5.01600468
Pb       6.62270227       6.61723466       6.51943086
I        9.88405502       6.41022695       6.34437837
I        7.00867841       9.85809697       6.52453799
I        6.84382659       6.51513355       9.75612133
C        9.72237652       9.87370227      10.02474765
H        8.97051648       9.86867856      10.82082834
N        9.61061949       8.98782696       9.05885154
H        8.84306677       8.31641125       9.04928339
H       10.27055978       8.96788915       8.28111581
N       10.68881357      10.76323291      10.08187616
H       11.41126586      10.80795717       9.35941320
H       10.73511047      11.43092067      10.85125742
Pb       6.62399138       6.61856943      13.05776875
I        9.94450881       6.46692923      13.47946262
I        6.49429618       9.86572585      12.66007129
I       19.83904496      20.06295669       9.75130661
C        9.94225356       9.66171116      16.39315736
H       -3.58856543       2.42343256       4.21220879
N       -1.89804571       3.32272777       3.41533293
H       -1.32384923       3.11197906       4.23105124
H       -1.41929494       3.69648950       2.59531365
N        9.14814403       9.98075506      15.39231966
H        9.43640977      10.65507404      14.67813132
H        8.17700418       9.68491852      15.38116589
Pb       6.73681136      13.21438586      -0.00045501
I       10.05987583      13.54428682      -0.04726295
I        6.44924956      16.45604615       0.25162144
I        6.58883670      12.92092952       3.23836910
C       10.17756989      16.36672341       2.86989060
H       10.75967324      16.47404009       1.94938780
N        9.51643552      17.41487803       3.31981788
H       -3.70030170       5.10108514       9.29742116
H        8.87554741      17.33148662       4.11145997
N       10.17472739      15.19910452       3.47595852
H        9.75387550      15.06058962       4.39631444
H       10.72479178      14.42363789       3.11037457
Pb       6.68942165      13.03120693       6.48389596
I        9.90947656      13.16661997       6.55159883
I        6.97557282      16.42143434       6.11224159
I        6.69568667      13.44982038       9.70974199
C       10.00009775      16.24635436       9.98934809
H        9.97327552      15.44449637      10.73243886
N       10.99283705      17.10920608      10.03512032
H       11.69871859      17.04848628      10.76638569
H       11.06633580      17.87840608       9.36874821
N        9.04177178      16.29907762       9.09037055
H        9.01429258      17.02902995       8.37778468
H        8.29179100      15.60788301       9.09169251
Pb       6.71167996      13.12567657      12.94884197
I       10.03442501      12.86658339      13.10693089
I        7.02999075      16.36453918      12.96970293
I        6.74680242      12.73904919      16.21136575
C        9.88089319      16.41730725      16.53694304
H        9.32590619      16.40184825      17.47859528
N       10.36234497      15.27895205      16.08149827
H       10.26153941      14.42479305      16.62094160
H       10.92406019      15.24507526      15.23050003
N       10.02249911      17.56921150      15.91704632
H       10.50812380      17.64482850      15.02321210
H        9.62492865      18.41854838      16.30970562
Pb       6.69857334      13.13135128      19.43835739
I       -3.12046867       6.49549283       6.50640997
I        6.81841110      16.40593674      19.22174279
I       -6.31822143       6.74397214       9.69659938
C       -3.26195335       9.52508544       9.78633497
H       -3.99283535       8.71217959       9.74225167
N       -3.32581306      10.36632566      10.79497458
H       -4.06957666      10.28995094      11.48983358
H       -2.68345412      11.15528193      10.88028336
N       -2.35989136       9.60625099       8.83008078
H       -1.67601522      10.36317219       8.80677837
H       -2.34074373       8.92892166       8.07152864
Pb       6.84009848      19.56817761      12.98753171
I       10.12980628      20.10781252      13.05483496
I       19.34292483      16.52656374      -0.05608238
I        6.79026717      19.73354589      16.21948666
C        9.93736721      22.74061924      16.25757869
H        9.20211385      22.00862093      15.91118419
N        9.64104739      23.47433027      17.31053779
H       21.70419983      17.01826909       4.77216599
H       10.26832881      24.20113212      17.65467718
N       11.07857059      22.83785880      15.61104393
H       11.76810514      23.55850728      15.85032512
H       11.26662269      22.23962051      14.81006520
Pb       6.77559943      19.66161615      19.52599783
I        9.99745586      19.67850036      19.19291590
I       19.61152391      16.55991325       6.55844484
I       -6.12592625      12.88997917       9.72419859
C       10.08187233       9.71396634      -3.23904616
H       -2.80031854      15.17647567      10.41049530
N        9.60380825       9.58652224      -4.45896215
H        9.52926497      21.69762645      21.18314875
H       22.63026595      17.07060043       7.94833772
N       10.45830789      10.87373749      -2.73846463
H       10.43791746      11.71762264      -3.30971616
H       10.86232275      10.94209895      -1.80864203
Pb      13.37224887      13.27873968      -0.01415094
I        3.62592439      19.22556754      12.99179823
I        0.24554101       3.32780107       6.60743869
I       13.13283100      12.96489669       3.27124076
C       16.15791236      16.48498628       3.38934411
H       15.27577791      16.82317589       3.94187285
N       16.56231210      17.19206558       2.35527219
H        2.86447604       4.84795074       8.57406597
H       17.35529760      16.90459043       1.77270699
N       16.75760530      15.38538870       3.79326801
H       17.61080918      15.03094929       3.35040173
H       16.44993390      14.88993213       4.63013147
Pb      13.12098046      13.25187514       6.59795612
I       16.44380040      13.15016817       6.80670773
I       13.22790403      16.47360759       6.28632512
I       13.10746012      13.55052184       9.80755269
C       16.55174344      16.92803982       9.67483690
H       16.79631189      17.88685616       9.20848321
N       15.32511003      16.46638005       9.54588405
H       14.62736318      16.98508769       9.01866805
H       15.06049875      15.52556735       9.84605477
N       17.49562271      16.28758404      10.33301293
H       17.27554149      15.47011296      10.91244178
H       18.42563606      16.68229139      10.43315789
Pb      13.31159411      13.26063601      13.05317015
I        3.42266872       6.92922697      -0.28498259
I       12.80737962      16.50823587      13.29836376
I        0.43443560       6.44184732       3.24296642
C        3.43521741       9.47990283       3.18245544
H        3.09071234       8.45952825       3.37446457
N        4.70592214       9.76242946       3.36801515
H        5.36194826       9.03460050       3.64709338
H        5.08005956      10.71332041       3.26882015
N        2.54804461      10.37185039       2.78872194
H        2.82725859      11.29504544       2.45705103
H        1.57372384      10.11949320       2.65850928
Pb      13.38507890      19.82781130      12.93757653
I       16.62727979      19.54730438      13.01242859
I       13.55131467      23.02490481      12.53601702
I       13.50804555      20.01167815      16.28241330
C        3.56151859      16.48735955       3.25977831
H        4.31221347      17.15354268       2.82415958
N       15.60530933      22.87358389      15.56877152
H       15.45753766      23.27335767      14.64546201
H       14.94760277      22.14012668      15.86426313
N        3.77362063      16.00337563       4.46636893
H        3.06303794      15.47039785       4.96839602
H        4.63672099      16.21531175       4.97248205
Cs       3.55022800      16.39358904       9.87360727
