233
Lattice="-12.957396986651146 6.351727325886291 13.017959588757243 13.11604327292129 6.668741413988977 13.017959588757243 13.195366416056363 13.17897578392661 -6.508979794378622" Properties=species:S:1:pos:R:3 pbc="T T T"
Pb      -6.40211201       6.50882830      12.98779339
I       -3.13144432       6.61950412      12.88357688
I       -6.53459537       9.68908833      13.09357108
I        6.74785732      19.61596989       9.78743537
C       -2.98582004       9.48375297      16.23961092
H       -2.52663961       8.50259286      16.08558774
N       -2.21557084      10.47178499      16.65307212
H       -1.23057389      10.32702603      16.84563506
H       -2.60061790      11.38016475      16.90593777
N       -4.27036507       9.63022861      15.99686255
H       -4.74033542      10.53905736      16.08027804
H       -4.84688273       8.84210737      15.71044800
Pb       0.35164985      19.57798179       6.51096732
I        3.56026065      19.42982606       6.71490486
I       13.16956805       9.95810562      12.90197647
I       13.40412478      13.06530588      -3.26683169
C        3.27694247       3.07814852       3.26034074
H        3.57971894       2.25010070       2.61235188
N        2.34504887       3.90183490       2.82486501
H        1.89708252       3.76356451       1.91954930
H        1.99251791       4.66797425       3.39898802
N        3.86419321       3.21210026       4.43106784
H        3.67274050       4.01610347       5.03851669
H       17.74742574      15.71873759      -1.75256127
Pb       0.12692209       6.47398115       6.56687420
I        3.40030410       6.39636911       6.27888427
I        0.03004479       9.80110868       6.83088311
I        0.40205998       6.40429480       9.86229975
C        3.36785110       9.72374417      10.06141152
H        3.10826481       9.49886495      11.10010001
N        3.24679095       8.76427820       9.16767295
H        2.83278080       7.86867882       9.41448265
H        3.54017984       8.88640219       8.20195452
N        3.80553227      10.93080500       9.76627822
H        3.91251695      11.25026763       8.80193503
H        3.88173092      11.64156720      10.49398700
Pb       0.12647955       6.58788480      13.15200743
I        3.35867336       6.71489266      13.11045638
I        0.23408941       9.81529242      13.15824824
I       13.00674061      19.57532302       9.85430827
C        3.45594252       9.69706489      16.09543666
H        3.92821135       9.33059403      15.17897947
N        3.78525186      10.89503545      16.53393354
H        4.51643128      11.44029160      16.08071576
H        3.43201945      11.26830064      17.41927315
N        2.57950455       8.92422131      16.70073518
H        2.08615969       9.22241745      17.54734451
H       15.53769910      21.18741854       9.82273186
Pb       0.14796253      13.10786335       6.69653624
I        3.50334609      13.33419695       6.87965199
I        0.39799323      16.33570731       6.76794190
I        0.05402025      13.25609328       9.84428470
Pb       0.14817136      13.06251587      13.08418075
I        3.46881275      13.23280647      12.76598414
I        0.46287351      16.33800907      13.04970664
I        0.35849448      13.21912904      16.31713715
C        3.39622789      16.12670361      16.11730909
H        3.03680019      15.28271314      15.52067062
N        4.51148310      15.97895659      16.80125646
H        5.06302508      15.12527699      16.72920770
H        4.88380792      16.71632325      17.40070630
N        2.68867652      17.23670200      16.11921613
H        2.92559341      18.01470099      16.73920932
H        1.85013021      17.31760340      15.54995948
Pb       0.28900363      13.06254177      19.52126092
I        3.51443327      12.88639168      19.68257600
I       13.41485515       9.94583536       6.46151530
I        0.00219952      13.07912895      22.80254054
C        3.44803727      16.37874037      22.86321366
H       15.70290439      10.82088729      10.11923756
N        4.71414500      16.68702068      22.68035497
H        5.07338297      17.63603897      22.79956472
H        5.40833380      15.95557747      22.50941815
N        2.99052206      15.15026467      22.72209187
H        3.59820610      14.40657663      22.37961858
H        2.00675269      14.91413409      22.84613872
Pb       6.60332424       6.55080281       0.03014701
I       -3.08556716      13.24347985      13.07015493
I        6.27446490       9.82740643      -0.13497227
I        6.84122880       6.45911085       3.26362417
C        9.96722615       9.94855373       3.16283092
H       10.79292011       9.87367820       2.45110900
N        8.73034496       9.97248175       2.70541835
H        8.51739976       9.90630627       1.71356628
H        7.94093889      10.07273805       3.34320339
N       10.23722175      10.01360983       4.45238746
H        9.48021671      10.08255748       5.13166149
H       11.19208074       9.99671275       4.81159472
Pb       6.69059954       6.57490853       6.50954897
I        9.94342794       6.66153762       6.46827520
I        6.54084205       9.86803787       6.08487629
I        6.62065016       6.55579429       9.77445215
C        9.77371668       9.68469438       9.76151541
H        9.93692158       8.69682963      10.20105515
N        9.93392318       9.83662705       8.46476148
H       10.12867234       9.02914848       7.87095283
H        9.91069102      10.76359076       8.02094492
N        9.44720517      10.67848424      10.56632885
H        9.13182483      11.57727022      10.20170065
H        9.28626629      10.51296489      11.55409097
Pb       6.57194847       6.72981952      13.05894233
I        9.90061060       6.86673584      12.88131183
I        6.61693239       9.93587368      13.02246635
I       19.60569595      19.80951019       9.77647733
C        9.91641394       9.77199237      16.37177249
H       -3.44071586       3.55876558       4.31795090
N        9.75821134       8.47335580      16.22368080
H        9.56383539      14.39346381      -2.51726680
H        9.85072308       8.02191269      15.30659400
N       10.34059338      10.55712793      15.39615246
H       10.74109221      10.16749245      14.54246215
H       10.47007493      11.55188065      15.54287989
Pb       6.58557211      13.07393796      -0.06055301
I        9.90354855      12.86151663      -0.17179774
I        6.88515516      16.37987248       0.04834263
I        6.51995619      13.06500021       3.27160732
C        9.83470415      16.37702522       3.29508955
H        9.00724357      17.04035598       3.56012707
N        9.57524460      15.11952382       3.00487218
H        8.62461435      14.74613059       3.01540092
H       10.33440753      14.45701878       2.82763357
N       11.05986486      16.86928732       3.28699187
H       11.83682699      16.31507470       2.92915623
H       11.25164325      17.84088711       3.51293876
Pb       6.72915505      13.17348034       6.51606122
I       10.00019471      13.04970704       6.69996600
I        6.78068160      16.37985134       6.34248355
I        6.80679825      13.44456451       9.74687437
C        9.93499490      16.47420708       9.57323112
H        9.95042437      17.05346230       8.64501930
N        9.26218119      16.95598192      10.59962329
H        8.71072857      17.80849014      10.50827619
H        9.17070447      16.42953448      11.46805417
N       10.60622918      15.34338177       9.62390861
H       10.56715164      14.74406947      10.45397595
H       11.10108570      14.98587516       8.81147958
Pb       6.69212383      13.21181185      12.93672716
I        9.96907444      13.56002922      12.82644348
I        6.55264198      16.42379793      13.16856774
I        6.76846205      12.98936209      16.22957001
C       10.01955100      16.45797983      16.17043545
H        9.33767796      17.12560283      15.63683305
N       11.17762732      16.93599927      16.57798833
H       11.45485275      17.89902990      16.39947743
H       11.85199659      16.34341534      17.06139100
N        9.65043406      15.21020501      16.37825857
H       10.25560982      14.55509356      16.87409527
H        8.74639024      14.85424486      16.07282124
Pb       6.82360849      13.12002570      19.56971758
I       -3.09719296       6.38198789       6.57853505
I        6.92615183      16.42999671      19.44760754
I       -6.46378763       6.78845193       9.74421720
C       -3.13466830       9.75194654       9.76957340
H       -4.00145940       9.73938566      10.43682587
N       -2.03403632       9.14039099      10.15870056
H       -1.99725527       8.64383143      11.04558952
H       -1.21633022       9.08784588       9.55146880
N       -3.23241820      10.38153323       8.61813276
H       -2.45032482      10.40472060       7.95902146
H       -4.09754436      10.83161523       8.33263929
Pb       6.82270122      19.63916129      13.13762714
I       10.02996468      19.55741502      13.41700984
I       20.12798840      16.55289596       0.05053646
I        6.78045864      19.73703807      16.31939441
C       10.01038154      22.55337524      16.23227345
H       10.14177721      21.50115040      15.96479796
N       21.77507025      16.60533320       3.59741897
H       21.01023665      15.93396310       3.64149647
H       21.52496613      17.59641185       3.66274663
N       11.05987956      23.34573697      16.16798503
H       11.02727065      24.31898928      16.46752997
H       11.94385869      23.00939006      15.80114220
Pb       6.84964980      19.67788354      19.52257716
I       10.08413835      19.93223668      19.36104543
I       19.84912664      16.59305793       6.93026623
I       -6.24156893      12.87024381       9.77681135
C       10.05932513       9.85997866      -3.17991543
H       -2.02325146      15.96512175      10.44606535
N        8.87974375       9.43013895      -2.78394164
H        8.78602835       8.86315468      -1.94494912
H       21.16158842      16.25110423       9.66785756
N       10.23196222      10.58553832      -4.26619280
H       22.56948585      17.46904634       8.12956979
H       -1.79284337      17.20099006       8.44182672
Pb      13.13654037      13.20485776      -0.09591320
I        3.50785539      19.66970402      13.06058780
I       -0.01363755       3.27462742       6.44015405
I       12.83686266      13.35719287       3.22280639
C       16.39392377      16.65158863       3.30561254
H       16.76761258      17.48320098       3.90801059
N       15.19406003      16.17288767       3.57023978
H       14.63216398      16.54467729       4.33393700
H       14.79869488      15.38338792       3.05731854
N       17.15575323      16.17209728       2.34334755
H       16.86631777      15.37339891       1.76796974
H       18.07076217      16.56801125       2.14437645
Pb      13.33407255      13.14799873       6.52272973
I       16.52726099      13.08464153       6.10296227
I       13.20891352      16.44411707       6.82260983
I       13.56448557      13.09038360       9.75111429
C       16.75627976      16.56412686       9.78785043
H       17.80341179      16.65695439      10.08748453
N       16.48212789      16.31940701       8.52433944
H       17.23995481      16.27093261       7.84430224
H       15.51977763      16.29620231       8.16824141
N       15.83513864      16.68679053      10.72025254
H       14.84454587      16.58450896      10.51535780
H       16.08196763      16.92817114      11.67463907
Pb      13.24549708      13.26808161      12.97441234
I        3.34308389       6.46897818       0.08038315
I       13.24687997      16.46089540      13.15683959
I       -0.09692378       6.73616246       3.31873606
C        3.10524718       9.85126755       3.09514729
H        2.11418368       9.78687809       2.63775599
N        3.91365817       8.81847726       2.98134812
H        3.67283672       8.02563387       2.38729743
H        4.81957258       8.79283325       3.44759914
N        3.42245041      10.94838348       3.75338725
H        4.37178250      11.10829904       4.09338871
H        2.77564193      11.73380596       3.78365112
Pb      13.25972641      19.67994694      13.09291352
I       16.50232613      19.69343652      13.12078047
I       13.49589860      22.96565383      13.05200329
I       13.45051820      19.90525011      16.36710068
C        3.54626589      16.31731798       3.05058331
H       16.19158983      23.08107772      15.08626624
N        2.78844720      15.97094225       4.07315770
H        1.80930844      15.73753354       3.94626740
H        3.18126747      15.77615386       4.99228102
N        4.83032721      16.57915801       3.16616056
H        5.31752628      16.50823287       4.06613265
H        5.39764814      16.77236655       2.33962830
Cs       3.46236101      16.43196860       9.89130325
