233
Lattice="-12.957396986651146 6.351727325886291 13.017959588757243 13.11604327292129 6.668741413988977 13.017959588757243 13.195366416056363 13.17897578392661 -6.508979794378622" Properties=species:S:1:pos:R:3 pbc="T T T"
Pb      -6.52703086       6.42491121      13.06912858
I       -3.23438314       6.26397063      12.87487579
I       -6.38214240       9.72958032      13.27749284
I        6.87677268      19.18132140       9.76661584
C       -3.40744210       9.64986364      16.16621851
H       -4.44383103       9.71258354      15.82239106
N       -3.06657398      10.28947885      17.26493390
H       -3.75901567      10.79479388      17.81100975
H       -2.12304674      10.23941909      17.65924336
N       -2.55417147       8.94745681      15.44880810
H       -1.58364628       8.82330183      15.73639509
H       -2.85592742       8.42448003      14.62753935
Pb       0.13921674      19.65069233       6.49729841
I        3.42155656      19.76637969       6.59627280
I       13.04303388      10.08144804      13.13882902
I       13.15063020      13.13381393      -3.24355603
C        3.31362870       3.35542999       3.50495147
H        2.68830118       3.12349374       4.37218197
N        4.48023029       2.75481778       3.39180833
H        5.02936506      21.61037655      10.59365470
H       -7.86758120       9.26934421      15.60391869
N        2.86052533       4.22230846       2.62359029
H        3.41361174       4.52053457       1.81864141
H        1.96485146       4.68821972       2.75413151
Pb       0.13739360       6.61636033       6.46789535
I        3.36931555       6.64868511       6.34252837
I        0.02240540       9.84882336       6.63899150
I        0.21579610       6.56652788       9.74276652
C        3.00847799       9.74441737       9.66721919
H        1.98100297       9.80358973       9.29710219
N        3.57202300       8.55714342       9.75986380
H        3.05334935       7.72162466       9.50714765
H        4.54012680       8.43795237      10.05821820
N        3.62289087      10.86286927       9.98974057
H        4.56303284      10.86670144      10.38589271
H        3.13959584      11.75467711       9.91641330
Pb       0.09744946       6.57270047      12.99814252
I        3.29740736       6.40366758      12.96624676
I        0.18972920       9.78180393      12.83276489
I       13.59548082      19.89547856       9.73940537
C        3.27786905       9.60205528      16.17757302
H        2.76485825       8.68199553      16.47107167
N        3.57540209       9.77209533      14.90553627
H        3.35898261       9.04864733      14.22268818
H        3.92740920      10.66154490      14.54856746
N        3.56946546      10.48245760      17.11270123
H        4.16654121      11.29092187      16.91923410
H        3.27827084      10.34347040      18.07369657
Pb       0.18687761      13.13138262       6.56133565
I        3.41019924      13.17175958       6.38611954
I        0.38428661      16.41285941       6.47812907
I        0.59319233      13.27790057       9.75159292
Pb       0.20758743      13.02463670      13.05315375
I        3.46376319      13.22486395      13.16092254
I        0.48826950      16.34537979      13.06761036
I        0.18225847      13.05908076      16.27336668
C        3.51862141      16.21727731      16.15036899
H        3.79522136      15.58164968      15.30383079
N        2.93432014      17.37091637      15.90386765
H        2.73481079      17.66127658      14.95032918
H       15.64409733      11.66773603       3.63336472
N        3.78368276      15.78735999      17.36626037
H        3.47024222      16.29845830      18.18950143
H        4.29084240      14.91803437      17.50970702
Pb       0.15624466      13.14974600      19.50204576
I        3.45862919      12.76110942      19.98728097
I       13.73455615       9.98541311       6.68068797
I       -0.23972323      13.23089952      22.78857162
C        3.63435435      16.37066972      23.10059422
H        4.34605824      16.37639663      23.93166317
N        3.73749784      17.30976391      22.18419807
H        4.47085225      18.01681375      22.24207997
H       16.05595219      11.00213278       8.37143459
N        2.72217498      15.42227767      23.06762866
H        2.02165886      15.37402803      22.32690030
H        2.68776639      14.71551760      23.80129548
Pb       6.68765597       6.62591675      -0.03892273
I       -3.00893580      13.06128449      12.77348388
I        7.04099068       9.91248791      -0.02125333
I        6.62516378       6.78456022       3.19340422
C       10.00323689       9.96300743       3.53218277
H       10.30312815       9.53190207       4.49164803
N       10.11990606      11.26279022       3.36162377
H       10.38427425      11.86505004       4.13899785
H        9.97189525      11.70859078       2.45110130
N        9.55779613       9.14865414       2.59762430
H        9.09851659       9.49873364       1.75213068
H        9.46891482       8.15369252       2.77435664
Pb       6.59347358       6.71469948       6.41509246
I        9.90103256       7.11116190       6.28772858
I        6.40870847       9.91897981       6.40793613
I        6.90042125       6.63400680       9.70656837
C       10.05286448      10.07695594       9.77001457
H       10.98192070      10.48719068       9.36393550
N        9.92776843       9.97040982      11.07660346
H       10.70178483      10.21185798      11.69704387
H        9.02146318       9.76397792      11.50902476
N        9.10196487       9.71729844       8.92922965
H        8.32061204       9.13436942       9.23430345
H        9.21356318       9.83139181       7.92747659
Pb       6.57473837       6.60144491      13.03195571
I        9.79848824       6.67782352      13.38303002
I        6.50974496       9.87084930      12.53592519
I       19.61120158      19.84723359       9.75294867
C       10.05746103       9.91387048      16.01272990
H       10.59505654       9.60043486      15.11338174
N        9.30846102      10.99505259      15.94404967
H        9.30067352      11.56965934      15.10131890
H        8.82313800      11.36386099      16.76177283
N       -2.92949273       2.51556872       4.08290948
H       -3.47193796       2.71034400       4.92497276
H       10.87783376      14.88211237      -2.41641085
Pb       6.81864966      13.20350289      -0.06534486
I       10.08709491      13.13980716       0.15742172
I        7.13490972      16.41241396      -0.04094229
I        6.87339971      13.31417818       3.29732952
C        9.99454739      16.14801127       3.14088070
H        9.81344610      15.24029749       2.55975850
N        9.05427295      16.56709857       3.96114179
H        8.18498946      16.05025963       4.06295569
H        9.18454799      17.39782083       4.54377287
N       11.14211777      16.77321029       2.97819209
H       11.37221235      17.62555816       3.48713510
H       11.85295293      16.41280469       2.34552693
Pb       6.58864718      13.10330753       6.53109330
I        9.95177405      12.92350523       6.74239354
I        6.25774580      16.41175318       6.51993254
I        6.35081728      13.43987927       9.80501101
C        9.93114304      16.55704591       9.87570581
H        9.36228546      17.17586619      10.57582758
N        9.28881630      15.98752670       8.87686580
H        8.29474481      16.14316262       8.73300929
H        9.73909819      15.30563301       8.26199320
N       11.22755647      16.43297076      10.06777392
H       11.81538181      15.90503297       9.42244179
H       11.68553209      16.83261835      10.88510160
Pb       6.67423159      13.21252450      12.98962309
I        9.95874910      13.31642760      12.98776963
I        6.55830829      16.37298571      13.14310187
I        6.28475643      13.06531149      16.36479448
C        9.82393980      16.63011820      16.17417286
H        9.30832654      17.55279080      15.89024504
N        9.40522126      15.98757340      17.24268818
H        8.61517860      16.32503186      17.79472137
H        9.83501366      15.11602147      17.56563404
N       10.83237841      16.22537845      15.43243183
H       11.35005189      15.36739535      15.64635875
H       11.10510580      16.73992740      14.59832714
Pb       6.73618793      13.12823823      19.63408684
I       -3.14521400       6.32351685       6.28626912
I        6.66858981      16.41026597      19.68903326
I       -6.35004523       6.72689208       9.83318827
C       -2.78097229       9.72719109       9.60872275
H       -1.74304778      10.01045836       9.41243117
N       -3.70759180      10.66104045       9.53394444
H       -3.48545197      11.59770887       9.20993157
H       -4.68870519      10.45634435       9.70094977
N       -3.04283983       8.47610100       9.91948705
H       -3.99916210       8.12472091      10.03296331
H       -2.28442574       7.79832913       9.98544294
Pb       6.96170950      19.54529071      13.00008584
I       10.19996524      19.22585634      12.94040297
I       20.03090430      16.55004799      -0.09960472
I        6.95474743      19.56513645      16.25351568
C        9.64597291      22.89130106      16.20352044
H        8.61557277      23.07826705      16.51930495
N       10.31336413      23.87345943      15.63432938
H       -3.31790251      11.60057088      21.99740829
H       11.23709608      23.73011969      15.22512801
N       10.15977143      21.69922343      16.42149843
H       11.13693141      21.46991957      16.22014199
H        9.59822778      20.96727577      16.84971125
Pb       6.70549659      19.65887767      19.46582505
I       10.01069010      19.72316612      19.70521329
I       19.66911527      16.56176483       6.25991979
I       -6.53846913      13.06867800       9.72643343
C        9.96154148       9.59208870      -3.25231640
H       -3.25801886      14.94499291      10.12704351
N       10.59021861      10.40499835      -2.42549260
H       10.85334168      10.10087295      -1.49294802
H       10.99800535      11.28441298      -2.74750807
N        9.62307250       9.93604362      -4.47617382
H       22.88332975      17.55522005       8.17953374
H       22.30236829      15.93431608       7.91297935
Pb      13.36975516      13.21022437      -0.00415014
I        3.65639783      19.55320605      12.69138963
I        0.38881756       3.31798011       6.48390615
I       13.18645827      13.53104778       3.22637650
C       16.80865991      16.52950972       3.24401431
H       17.71086779      16.79592327       3.80266115
N       16.86388715      16.48358352       1.92889314
H       17.73973345      16.63822919       1.42683457
H       16.01631273      16.36811091       1.36734426
N       15.70627159      16.27466079       3.92271404
H       14.90852365      15.81028512       3.48456701
H       15.69587391      16.32039178       4.93541002
Pb      13.18704714      13.21879617       6.50023062
I       16.43453264      13.28775323       6.19781139
I       12.94077050      16.42752126       6.59047866
I       13.32648695      13.26008777       9.71636394
C       16.49464642      16.16566876       9.90156660
H       16.54222626      15.07497228       9.94040664
N       17.15800613      16.85473749      10.80502584
H       17.71656140      16.39429684      11.52020457
H       17.12915890      17.87287581      10.83942954
N       15.78358734      16.73056203       8.94667731
H       15.68218332      17.74276815       8.88123683
H       15.24151174      16.17773044       8.28785742
Pb      13.27431758      13.32497372      12.90346030
I        3.42727040       6.68043107      -0.08731990
I       13.64673217      16.57838786      12.91780328
I        0.03776144       6.74945605       3.23052832
C        3.40225805       9.51236558       3.29374428
H        3.59229469       8.49618751       3.64992536
N        4.39253530      10.16973771       2.72460778
H        5.30419224       9.73598103       2.61413646
H        4.24987476      11.08250739       2.29204171
N        2.19894377      10.01907144       3.46301687
H        1.96531673      10.98100240       3.20763310
H        1.46367102       9.47443807       3.90628603
Pb      13.42261948      19.79063130      13.00285159
I       16.68809617      19.84194912      13.19043215
I       13.08995116      23.06207171      13.00092738
I       13.38630306      19.89269823      16.25513686
C        3.43064590      16.22346693       3.47686093
H        3.29131256      15.48272446       4.27110415
N        4.49264872      16.11456572       2.70714603
H        5.15683648      15.34914079       2.83724414
H        4.65068575      16.75007504       1.92529808
N       15.64954077      23.84408845      16.36337631
H        2.54768556      11.38201259      22.14636205
H       14.84916378      23.89564004      16.98933581
Cs       3.43396954      16.42373774       9.74500084
