233
Lattice="-12.957396986651146 6.351727325886291 13.017959588757243 13.11604327292129 6.668741413988977 13.017959588757243 13.195366416056363 13.17897578392661 -6.508979794378622" Properties=species:S:1:pos:R:3 pbc="T T T"
Pb      -6.32576966       6.36500513      12.94417839
I       -3.07764881       6.29688333      12.73856228
I       -6.21237332       9.60072448      13.07263153
I        6.77214921      19.15803396       9.71407165
C       -3.30088807       9.82100642      16.15134042
H       -4.28560660      10.28401957      16.26534946
N       -2.47822675       9.83912002      17.17924172
H       -2.71321431      10.34018535      18.03285626
H       -1.59555070       9.32946087      17.16972093
N       -2.99668737       9.27190429      14.99432106
H       -2.05846166       8.92594138      14.79286922
H       -3.67813631       9.25996085      14.23637369
Pb       0.39766557      19.47445789       6.40328165
I        3.60444307      19.40048729       6.56338013
I       13.62341449       9.93228140      12.98680545
I       13.43299049      13.19407964      -3.36687376
C        3.39131362       3.25107622       3.58440410
H        3.84005182       3.40696864       4.57005588
N        3.51837741       2.06794575       3.02203025
H        4.23161625      20.83742219      10.00937643
H       -9.82793729       8.20515639      15.12083013
N        2.77049573       4.26055298       3.01178178
H        2.27268801       4.14508866       2.12712428
H        2.67784101       5.14887307       3.49879355
Pb       0.03180629       6.42351136       6.42292274
I        3.28077482       6.61527526       6.01740744
I        0.05738705       9.74835236       6.92359464
I        0.24714694       6.19406675       9.65410544
C        3.20096575       9.75563201       9.82835927
H        2.32877868      10.37859869       9.60910152
N        4.14832413      10.25442226      10.59767391
H        4.06483435      11.18512222      11.00111137
H        4.95222990       9.70101737      10.90027130
N        3.25907347       8.54725278       9.30749706
H        4.07692625       7.94310389       9.44616639
H        2.50136626       8.18228245       8.73701708
Pb       0.13194584       6.43714529      12.91961673
I        3.43060911       6.71224241      13.07559539
I        0.29250287       9.72331543      13.00134613
I       13.06533482      19.69506428       9.64954936
C        3.44151921       9.82199600      16.46723206
H        3.82202873      10.20739640      17.41770467
N        2.77140221      10.64089490      15.68132206
H        2.55107088      11.58712846      15.98030078
H        2.26303187      10.29785891      14.86077556
N        3.69679242       8.57047940      16.15405147
H        3.45956823       8.17444729      15.23654215
H       17.37196419      21.13956439      10.30121935
Pb       0.10096185      13.03983472       6.46905340
I        3.39528196      13.44031646       6.46680193
I        0.24044184      16.27917551       6.68631963
I        0.18394673      13.12919274       9.69307841
Pb       0.21872966      13.04876859      12.95390597
I        3.51346724      13.28901175      12.94537004
I        0.38212101      16.27866792      12.65986864
I        0.12611753      13.20243712      16.21708550
C        3.39203463      16.16796401      16.01845009
H        3.42800789      16.25366315      14.93007313
N        3.86193615      15.07221035      16.58002182
H        4.27459251      14.33129177      16.02001961
H        3.74630817      14.88078748      17.57619882
N        2.89401040      17.16971146      16.71297406
H        2.87067352      17.16564914      17.73250655
H        2.46961185      17.97445440      16.25852467
Pb       0.10839071      12.95997971      19.45949176
I        3.36878055      12.75191840      19.42344080
I       13.34249725       9.81589859       6.53480849
I        0.35641658      12.78540069      22.71115255
C        3.29877910      16.32746191      22.83608498
H       15.26564349       9.72327326      10.20537396
N        3.91059008      15.45490155      22.06013511
H        3.47671218      14.56942949      21.81810754
H        4.81422697      15.65551454      21.62909313
N       16.78201341      11.13606277      10.14989677
H        4.75610846      17.77771174      22.85432945
H       16.30402587      11.76994332      10.78679767
Pb       6.67951842       6.54888415       0.01389593
I       -3.02757889      13.06289002      13.03274066
I        6.73038013       9.74561990       0.13458045
I        6.79442171       6.48783705       3.21605033
C        9.94540529      10.11205478       3.29177299
H       10.27114469      11.02040316       3.80776637
N       10.68504310       9.64987936       2.30499738
H       11.54530239      10.11229693       2.02506730
H       10.43050328       8.80259479       1.78846704
N        8.83128063       9.53419003       3.68997670
H        8.45853977       8.69530958       3.23687350
H        8.29374822       9.89330115       4.47826840
Pb       6.54954238       6.48770077       6.45886482
I        9.79981397       6.34946343       6.70818990
I        6.58558493       9.81101595       6.70371100
I        6.32708618       6.52306028       9.74131611
C        9.78603047       9.88650824       9.78029411
H        8.95527573       9.20978007       9.56715725
N        9.61294234      11.18044974       9.59531249
H        8.72180659      11.56295530       9.28832806
H       10.37271022      11.84168989       9.75418526
N       10.92626250       9.38041693      10.20902787
H       11.70723804       9.97947455      10.47282417
H       11.04398883       8.38161973      10.35144612
Pb       6.65039755       6.54578728      12.95301549
I        9.96411124       6.88796235      12.93161539
I        6.89060768       9.75345360      12.96330899
I       20.10054554      19.38225894       9.69306605
C        9.99122448       9.95022606      16.37653163
H       -3.07611100       3.77470661       4.33348615
N       10.80619939      10.36177329      15.42682796
H       11.44760068      11.13774108      15.59168799
H       10.86085016       9.88323448      14.53033796
N        9.12419392       8.97484693      16.21070786
H        9.00396829       8.51201345      15.30909526
H       21.69472260      21.87725245      10.45448146
Pb       6.81173303      12.95856688       0.02690688
I       10.00564408      13.18124384      -0.10685075
I        6.63799656      16.18310612      -0.38672213
I        6.82766484      13.28801001       3.21980934
C       10.03224018      16.51222102       3.25394227
H       10.72697526      17.33233658       3.04816981
N       10.33027209      15.67336501       4.22266934
H       11.17205607      15.79931510       4.78549834
H        9.72280361      14.89155770       4.47286703
N        8.94424431      16.41179379       2.52007436
H        8.26314999      15.66352480       2.67069707
H        8.75224100      17.08253624       1.78098300
Pb       6.65684599      13.10474854       6.47932859
I        9.90183121      12.84051872       6.45845975
I        6.91328249      16.29063280       6.52508559
I        6.39596373      13.25370629       9.71727570
C        9.95762094      16.68176037       9.67935791
H        9.87415235      17.74111754       9.42471987
N        8.86671237      15.94785246       9.67578200
H        7.97289557      16.34943292       9.40601003
H        8.86475086      14.97876654       9.98927939
N       11.14887398      16.19646494       9.96466538
H       11.27679466      15.22925395      10.26073094
H       11.95999474      16.80662497       9.99638302
Pb       6.79277080      13.04868282      13.00850050
I       10.01060097      13.34751425      12.58685382
I        6.75773828      16.28759951      13.16143838
I        6.80544083      12.75629522      16.19316304
C       10.02698482      16.34738666      16.33775143
H       10.51714008      16.18128907      17.30065254
N       10.71111781      16.95064163      15.38569849
H       11.65547666      17.29379851      15.55008991
H       10.29141250      17.18350781      14.48624168
N        8.79047770      15.92382548      16.17466505
H        8.29278014      16.02829981      15.28134099
H        8.27548435      15.49462086      16.93899498
Pb       6.67690983      12.91654989      19.46515065
I       -3.23314027       6.14372158       6.58787966
I        6.70722872      16.20052673      19.45062115
I       -6.57128909       6.23123348       9.72580394
C       -3.18046767       9.74301332       9.80289334
H       -4.09415984       9.78138284      10.40397435
N       -2.29964523       8.80034783      10.06788351
H       -2.46972232       8.11048018      10.80098877
H       -1.43183259       8.71687102       9.53758640
N       -3.00976437      10.63957048       8.85599293
H       -2.18724140      10.61174414       8.24497097
H       -3.70340305      11.36553980       8.69266853
Pb       6.80601219      19.53908469      12.94454036
I       10.08233464      19.54990115      12.78075435
I       19.58604997      16.44670892      -0.10258746
I        6.68274731      19.68903546      16.20613611
C       10.06456203      22.93885785      16.25468540
H       10.61212704      23.68031776      15.66577673
N        9.93136559      21.72092758      15.76638864
H       10.27304665      21.46583721      14.84206920
H        9.39733002      21.00905455      16.26693116
N        9.56914233      23.30363523      17.42141435
H        9.04182148      22.65065691      18.00188151
H       22.67862029      17.88810303       4.77881610
Pb       6.70754684      19.52657791      19.38232039
I        9.99531808      19.85273043      19.12961090
I       19.38857808      16.40784561       6.61552083
I       -6.12456650      12.63309540       9.69666810
C       10.04709979       9.76416808      -3.25091801
H       -2.16167605      15.32873763       9.89996309
N       10.45344797      10.96807973      -3.59921133
H       11.43828189      11.19217482      -3.72662061
H        9.78356205      11.72510008      -3.73107242
N        8.77675725       9.46987636      -3.06642911
H        8.06357370      10.20190056      -3.10822646
H        8.46821548       8.52841014      -2.83222236
Pb      13.18622069      13.20243849      -0.17311508
I        3.58226727      19.33174276      12.74885795
I        0.11583383       3.24404251       6.24821063
I       13.05373781      13.12839092       3.13753402
C       16.60921321      16.39653908       3.18772311
H       17.60304205      16.69693514       2.84458038
N       15.98444112      15.43215271       2.54106897
H       16.40796962      14.96057503       1.74394256
H       15.05406891      15.11031913       2.81563138
N       16.08921367      17.01004004       4.23053714
H       15.17278937      16.75513167       4.61162055
H       16.58076002      17.76348674       4.70736524
Pb      13.16053452      12.98490029       6.42919651
I       16.44187172      13.04312962       6.46736053
I       13.25334059      16.33923044       6.46574097
I       13.16984538      12.88734789       9.70595243
C       16.26691411      16.41444153       9.94148393
H       15.66918567      16.44922519      10.85592066
N       17.16246118      17.35666629       9.74492377
H       17.29408715      18.09052507      10.43844175
H       17.77996015      17.34931202       8.93120774
N       16.05200310      15.43172444       9.09396674
H       16.56343110      15.35307139       8.21458146
H       15.32327184      14.74120521       9.26254569
Pb      13.23646228      13.20628079      12.99819090
I        3.39013111       6.82427781       0.08826356
I       13.37149787      16.38877656      12.76297889
I       -0.23148618       6.76302535       3.17142711
C        3.54368485       9.60983065       3.30023195
H        3.84690194       8.56293979       3.38376075
N        3.13833037      10.05515583       2.13129352
H        3.10709045       9.43608378       1.32398317
H        2.85081550      11.02355359       1.99135607
N        3.59510833      10.36144153       4.38144271
H        3.25435108      11.32225580       4.38972347
H        3.98604433      10.00016965       5.24680439
Pb      13.34497411      19.61206786      12.84838463
I       16.61753948      19.59729188      12.75513167
I       13.46402743      22.83667889      12.95702953
I       13.57366065      19.29437917      16.22102662
C        3.43588359      16.47895245       3.15917467
H       16.64471749      24.02626585      15.53122542
N        4.10371978      16.45868263       4.29208351
H        4.68477234      17.24375807       4.57241181
H        4.03102098      15.67363175       4.94474124
N       15.78344050      22.15812137      15.77484492
H        2.50233404      14.66503890       3.33501722
H       15.23897317      22.23668657      14.91492253
Cs       3.37509951      16.26862427       9.73563053
