233
Lattice="-12.957396986651146 6.351727325886291 13.017959588757243 13.11604327292129 6.668741413988977 13.017959588757243 13.195366416056363 13.17897578392661 -6.508979794378622" Properties=species:S:1:pos:R:3 pbc="T T T"
Pb      -6.30567447       6.36771591      12.93707668
I       -3.12159285       6.28897428      12.81005488
I       -6.12295438       9.61137897      13.22423490
I        6.54479229      19.38773710       9.70477301
C       -3.18053663       9.72091209      16.19334710
H       -3.87490284      10.53174930      15.95997706
N       -1.88518035       9.94286168      16.11014620
H       -1.50510938      10.86084407      15.88592455
H       -1.22261050       9.17193240      16.20987131
N       -3.67358247       8.54719685      16.54321168
H       10.13385535      20.97982677      10.36131610
H       -4.67495085       8.38657276      16.59861301
Pb       0.25567946      19.44473262       6.43158432
I        3.56067445      19.39477164       6.47538377
I       13.30826326       9.84572877      12.68724708
I       13.13972472      13.34910973      -3.31047638
C        3.29195972       3.05654291       3.54703184
H        3.35131581       2.24128067       4.27430974
N        2.34641086       3.95904805       3.70424525
H        1.67717906       3.88512018       4.46878744
H        2.25170500       4.75296510       3.07101681
N        4.16335104       3.08451809       2.56293191
H        4.16604621       3.83452548       1.86779462
H       -8.06985222       8.72624409      15.50693442
Pb       0.04442350       6.56147598       6.40322231
I        3.37595412       6.87048491       6.42270866
I       -0.13027659       9.81124510       6.22116905
I        0.34684567       6.58028529       9.68056644
C        3.36893641       9.92709882       9.79910223
H        3.85859995      10.90468294       9.81742041
N        4.08231096       8.86454098      10.11912588
H        5.03755468       8.95480226      10.45492124
H        3.65875876       7.94204843      10.18967574
N        2.10587677       9.85858515       9.43275080
H        1.59787090       8.96795013       9.43646286
H        1.56935244      10.70287818       9.23946705
Pb       0.09562599       6.51525689      12.89725421
I        3.37800286       6.49092876      12.93162628
I        0.12792891       9.75937355      12.86193524
I       12.98477046      19.67902465       9.74584285
C        3.50285458       9.78916404      16.12307184
H        4.17226119       9.79403001      15.25830751
N        2.28527341       9.30615746      15.98350184
H        1.92208007       9.03352060      15.07303461
H        1.64959890       9.26449547      16.78520872
N        3.95878084      10.24277770      17.27497473
H        3.33985832      10.33287117      18.08135299
H        4.89643504      10.62351368      17.35909516
Pb       0.09389031      13.06986086       6.46891499
I        3.34273015      13.00689222       6.84944311
I        0.34556128      16.26341314       6.94699509
I       -0.11985316      12.95662382       9.69156515
Pb       0.20135255      13.03308994      12.91579357
I        3.45256124      13.21802047      12.75637351
I        0.33311923      16.29909811      12.63733078
I        0.33073203      13.01082183      16.17525037
C        3.44274265      16.45227393      16.27861449
H        3.83108263      17.34246664      16.78080353
N        4.18365406      15.88041371      15.35094020
H        5.09669085      16.24931742      15.09702697
H        3.85076038      15.08189566      14.80371785
N        2.25262069      16.00419199      16.62103049
H        1.88056792      15.11230787      16.27434805
H        1.71181837      16.45588750      17.35637921
Pb       0.23980950      12.99414207      19.51608388
I        3.45849712      13.25468828      19.55866852
I       13.19774299       9.89536636       6.80269493
I       -0.07269321      12.49288965      22.72413396
C        3.25900556      16.28833841      22.98535078
H       15.20698635       9.82134559      10.37260909
N       16.45643475      10.95417583       9.17142978
H       15.72536881      11.63012474       8.95895369
H        4.43429160      17.51380136      21.84037075
N        4.16703844      15.39872641      23.32372343
H       -8.01475429       8.72759385       9.89779907
H       -9.16501113       7.98713426      10.97127824
Pb       6.70629479       6.46621315      -0.03974652
I       -3.03984057      12.94212105      13.03671089
I        6.73830558       9.79493260      -0.26481539
I        6.53570387       6.64578353       3.20103160
C        9.88279291      10.12335339       3.07214133
H       10.20262973      10.72856973       2.21807404
N        8.63872316       9.69044150       3.10216023
H        8.00646601       9.86425797       2.32259321
H        8.23886431       9.27169202       3.94252500
N       10.76158367       9.85687222       4.01603263
H       10.55890627       9.19269591       4.76437809
H       11.67914025      10.29287189       4.01084924
Pb       6.65384478       6.56484248       6.45900707
I        9.92040814       6.57946370       6.11819312
I        7.05872520       9.82843961       6.66878409
I        6.69755311       6.25798167       9.69495740
C        9.96668014       9.84895440       9.93071785
H       10.35109446       9.72674341      10.94693191
N        9.40606325      10.99549659       9.60763352
H        9.29543438      11.73044471      10.30185004
H        9.06622731      11.18416109       8.66395267
N       10.09070618       8.84227172       9.09075930
H        9.66848853       8.86448287       8.16225753
H       10.59845733       8.00011385       9.35095266
Pb       6.69395033       6.59188071      12.98663174
I        9.91536624       6.72917273      12.84569478
I        6.61468983       9.85287347      12.76047925
I       19.90463949      20.00763150       9.71901085
C        9.88473286       9.55730254      16.29960874
H       -3.20683091       1.90378587       3.75675562
N       10.65393861       9.77208643      15.25325237
H       11.26426843       9.04161511      14.89755324
H       10.62454510      10.64832609      14.72955358
N        9.08874547      10.47303405      16.80884278
H        8.99507606      11.40118086      16.39785559
H        8.50648125      10.27233531      17.62185578
Pb       6.70381398      13.07648876      -0.04956843
I        9.94021182      13.16486539       0.14445811
I        6.85162212      16.34984324       0.19470653
I        6.42723289      13.01302626       3.22435921
C        9.99198806      16.35022231       2.94557425
H       10.07462093      16.27213093       1.85853931
N        8.85006010      16.02233462       3.51254822
H        8.06814086      15.69198736       2.95241593
H        8.70148798      16.07443610       4.52160625
N       11.04581309      16.76443476       3.61934007
H       11.03272841      16.88386526       4.63219622
H       11.89930035      17.02653078       3.13520938
Pb       6.62094410      13.06473502       6.44537735
I        9.87796621      13.23612735       6.47645361
I        6.70363054      16.33457945       6.55202624
I        6.60802411      13.45163101       9.71047607
C        9.67748080      16.35254826       9.83380518
H        8.63865916      16.04519054       9.98108697
N        9.92107889      17.58455960       9.43931206
H        9.15422559      18.22574020       9.25182710
H       10.87150134      17.94962639       9.33911020
N       10.62502861      15.46687528      10.06128146
H       11.60413208      15.65891898       9.86312526
H       10.40828583      14.54932646      10.43753405
Pb       6.70564481      13.07124775      12.90503324
I        9.98406856      12.84904098      12.89858100
I        6.83654502      16.37968139      12.83948548
I        6.62828199      13.06124921      16.19474682
C        9.97148681      16.24722444      16.35066641
H        9.87252455      15.45633401      17.10050473
N        9.04218952      17.17802974      16.29515250
H        8.26255660      17.18033821      16.94805874
H        9.10460016      17.94622110      15.62398330
N       11.01474804      16.22306934      15.54998252
H       11.13365887      16.90776311      14.80284050
H       11.70647977      15.47593753      15.62515865
Pb       6.70269535      13.20639685      19.43141614
I       -3.15280851       6.44393994       6.37444238
I        6.68483957      16.40402564      19.37908104
I       -6.13568002       6.59383054       9.69851108
C       -2.76892844       9.81333839       9.72002283
H       -1.82183981      10.35889250       9.70710916
N       -3.44366650       9.76300188      10.84813402
H       -3.11493116      10.25049844      11.67697849
H       -4.34143995       9.28592390      10.92340377
N       -3.18091035       9.24362821       8.60637643
H       -4.02364819       8.67050664       8.57620793
H       -2.61435248       9.28347504       7.76283444
Pb       6.76073335      19.59936566      13.00861601
I       10.05054461      19.50185820      13.35244174
I       19.69622529      16.49885005      -0.33093887
I        6.39103282      19.64742716      16.22116925
C        9.90767364      23.11000470      16.26210558
H       10.09883633      24.08335009      15.80197164
N        8.73579114      22.54068124      16.05939081
H        8.02323944      23.00220308      15.49958338
H        8.52325414      21.60027970      16.39211515
N       10.85432675      22.56648891      16.99514886
H       10.69218899      21.70035096      17.52261288
H       11.75024946      23.03196178      17.11208190
Pb       6.69983373      19.68122456      19.54301607
I        9.96101398      19.74717867      19.19045977
I       19.83841169      16.54110843       7.00973293
I       -6.35667425      12.57977186       9.72192303
C       10.16281279       9.86241582      -3.10799140
H       -1.84555601      15.96737904      10.39550857
N        9.96738504      11.10731867      -3.49173614
H       10.70525776      11.80305650      -3.39294937
H       22.17237671      18.10607188       9.20444494
N        9.27950689       8.90115330      -3.27861235
H       21.54274809      15.72089882       9.19643805
H       -3.51246605      14.32125387      10.10557483
Pb      13.16289572      13.18962046       0.01215764
I        3.50611703      19.66889116      13.02339630
I       -0.03694868       3.29457848       6.69823689
I       13.18163805      12.81075082       3.23595939
C       16.29904135      16.61496446       3.14574440
H       16.00168934      17.43310133       3.80730399
N       16.68321986      16.89881461       1.91777270
H        3.48436639       4.67474880       8.06667309
H       16.96073801      16.16139492       1.26992903
N       16.25666496      15.38209017       3.60893594
H       16.57724178      14.59772123       3.04193699
H       15.99520736      15.16872745       4.57059308
Pb      13.09544657      13.18117555       6.47696726
I       16.42316661      13.39311401       6.60034056
I       13.23757071      16.41948322       6.56798799
I       13.38447770      13.16208281       9.71202078
C       16.74515168      16.42701833       9.77621404
H       17.73380542      16.25214664       9.34225370
N       16.45906229      15.88164974      10.94018241
H       17.15434306      15.34868502      11.45389485
H       15.56024044      16.05300754      11.41018703
N       15.89135532      17.16580686       9.09738710
H       14.94713763      17.34105152       9.43604569
H       16.15009131      17.60472426       8.21406198
Pb      13.32584692      13.05158843      12.91702952
I        3.39765276       6.10959538       0.26023581
I       13.38284980      16.41943474      12.80487165
I       -0.13229003       6.48542973       3.16129974
C        3.35981715       9.62082971       3.33061126
H        3.39763254       8.88650248       4.14120346
N        2.48376648      10.59948073       3.41332098
H        1.83069807      10.65566715       4.19103787
H        2.44089975      11.33876225       2.71079237
N        4.18767900       9.47724540       2.31856900
H        4.22022411      10.15197883       1.55306370
H        4.85027979       8.70269579       2.29893400
Pb      13.34209584      19.69759367      13.04704097
I       16.54498924      19.40910040      13.12331450
I       13.86530865      22.92515418      12.79886628
I       13.45163738      20.11160322      16.25025086
C        3.39671987      16.21186435       3.30175610
H       15.90023222      22.13460233      15.80634134
N       17.13515368      23.79152866      15.59734759
H        3.82536403      10.66098165      21.10010649
H       -8.52577224       4.60807693       9.50513516
N        3.48197279      16.16041649       4.61524003
H        3.94174159      16.89911825       5.15128007
H        3.01761704      15.43043964       5.15065685
Cs       3.45742899      16.32613572       9.82862932
