233
Lattice="-12.957396986651146 6.351727325886291 13.017959588757243 13.11604327292129 6.668741413988977 13.017959588757243 13.195366416056363 13.17897578392661 -6.508979794378622" Properties=species:S:1:pos:R:3 pbc="T T T"
Pb      -6.37376308       6.27454872      12.97428436
I       -3.12379864       6.05528650      13.31083409
I       -6.36624467       9.54459590      12.84747751
I        6.63467842      19.63365777       9.73013053
C       -3.27209609       9.93881146      16.28281147
H       -3.92591344      10.81502704      16.32006088
N       -2.30195030       9.84185165      17.16554354
H       -2.16954578      10.55777083      17.87644578
H       -1.62301594       9.07799969      17.13038157
N       -3.50240720       9.03342804      15.35561496
H       -2.92853368       8.19393186      15.26919488
H       -4.26668386       9.14331633      14.69004172
Pb       0.35410266      19.50109387       6.50220512
I        3.58049720      19.28479313       6.70623818
I       12.88900168       9.88989792      12.92310190
I       13.38296808      13.17218168      -3.30598418
C        3.41830721       2.79629472       3.41317954
H        3.55705014       1.72352591       3.57009257
N        2.19083905       3.26519628       3.36290502
H        1.40349637       2.62555240       3.44155085
H        1.97353275       4.26040588       3.27316808
N        4.49416910       3.54349025       3.28951520
H        4.45234887       4.55060698       3.14427192
H        5.41551380       3.12229854       3.34020703
Pb       0.04492857       6.43565577       6.49966074
I        3.43773581       6.22593344       6.50946725
I        0.26386914       9.72542655       6.47595167
I        0.06123485       6.62375338       9.73460246
C        3.38061168       9.63571021       9.95320233
H        3.91264467       9.95484438      10.85472622
N        2.13942193      10.03877061       9.76938236
H        1.65314615      10.59583009      10.46658809
H        1.62090662       9.81813223       8.91521177
N        4.02116850       8.87695765       9.08503239
H        3.54551903       8.45601246       8.28476040
H        4.96696512       8.54768901       9.27170769
Pb       0.18496602       6.54937381      12.90456289
I        3.35502373       6.38323055      12.97489904
I       -0.13832669       9.78658530      12.80181753
I       13.11675661      20.02330467       9.75094411
C        3.41643655       9.91294693      16.28058621
H        2.64054551      10.64260462      16.03445316
N        4.67779103      10.29756422      16.25600071
H        4.95121734      11.26179126      16.06958097
H        5.42188408       9.65596429      16.52863258
N        3.05936742       8.67966784      16.57819977
H       16.94854153      21.15319173      10.31949795
H       15.27784032      21.56116015      10.06861813
Pb       0.23192741      13.00697901       6.54754768
I        3.47339185      13.12575144       6.80148274
I        0.62362207      16.25962289       6.53487787
I        0.26356634      13.24348639       9.76854996
Pb       0.11104525      13.03613645      12.98866907
I        3.37807295      13.01662629      13.11416358
I        0.32157142      16.29862512      12.61798564
I       -0.22841893      13.15247683      16.23579958
C        3.61576737      16.26303848      16.10162790
H        4.52046912      15.96426093      15.56361430
N        2.56494395      15.47057405      16.04230654
H        2.58238060      14.62801680      15.47281599
H        1.74976337      15.62190525      16.63799777
N        3.63511957      17.39011990      16.78142574
H        2.78986563      17.77627682      17.20277996
H        4.46439474      17.98583000      16.77973926
Pb       0.32188132      13.04317693      19.50692680
I        3.51101738      13.10872645      19.39048081
I       13.23777255       9.94398673       6.17521869
I        0.59801547      13.25137260      22.72941490
C        3.59233017      16.41753187      22.86959453
H       17.18753317      10.90897249      10.13307225
N        3.67978239      15.30563183      23.56946226
H       -8.77343525       8.55426761      11.31799463
H        3.04934611      14.51929744      23.39689700
N       15.72510813      10.21799691       8.83662167
H        2.14102094      15.82275940      21.55477008
H       15.72368445      11.07763725       8.28855773
Pb       6.65532800       6.44563258      -0.06434076
I       -3.12377937      12.82789834      13.02989060
I        6.67165501       9.75027735       0.15314266
I        6.68774358       6.43179781       3.24422978
C        9.82437149      10.10847239       3.23919133
H        9.14389635      10.96295778       3.27494171
N        9.68984328       9.16190547       4.14348821
H        8.94768423       9.21017574       4.84070599
H       10.33164229       8.36913069       4.18813446
N       10.73832335      10.07589245       2.29012474
H       11.42121860       9.31931697       2.24233023
H       10.81411667      10.83221472       1.61353804
Pb       6.74075724       6.38464097       6.44675413
I        9.97310638       6.43131668       6.65942177
I        6.59528024       9.69158486       6.25970522
I        7.04020188       6.72256598       9.74310089
C       10.08257078      10.06230788       9.72673169
H       10.69690610      10.93990186       9.94765900
N        9.93780363       9.14521462      10.65942649
H       10.45875995       9.20427953      11.53143453
H        9.28311512       8.36808848      10.55188561
N        9.51791399       9.97556947       8.53891793
H        8.97339318       9.15923796       8.26432893
H        9.62933418      10.72239958       7.85153203
Pb       6.62833055       6.50611302      12.99842610
I        9.93045546       6.39662191      13.13914986
I        6.59963106       9.79820729      12.88239349
I       19.60626914      19.80612293       9.73697062
C        9.61154062       9.65023990      16.19418782
H        8.67133344       9.21744366      16.54731959
N        9.69114985      10.05178425      14.94185864
H        8.88218506       9.97781236      14.32101932
H       10.58840709      10.29065176      14.51268021
N       -2.50485916       3.08366798       4.02878437
H       -1.68254531       3.64998792       3.81874811
H       -2.57430040       2.70093689       4.96672505
Pb       6.69153164      13.02827560      -0.05269105
I       10.00004645      13.12517586      -0.03884450
I        6.79488876      16.27882375      -0.27249498
I        6.32417637      13.36641418       3.20580551
C       10.10385002      16.26366340       3.21154256
H       10.99084196      16.60395574       2.66956489
N       10.06116170      16.41960904       4.51846892
H       10.86703201      16.77482973       5.03224613
H        9.21370827      16.21594605       5.05211141
N        9.12050902      15.72134954       2.52445376
H        8.31185450      15.29174745       2.98054116
H        9.17954578      15.60882658       1.51709751
Pb       6.66084942      12.95876158       6.47454523
I        9.94413948      12.94661692       6.27393441
I        6.73724046      16.20995866       6.41439487
I        6.67924460      13.11944801       9.67732959
C       10.00266008      16.21144640       9.98355698
H        9.97589841      15.53051046      10.83960235
N        9.22247644      15.94932799       8.95752172
H        8.57548848      15.16274951       8.97945763
H        9.17295910      16.57939941       8.15699903
N       10.82969150      17.23327514      10.01942071
H       10.84282753      17.93372687       9.27571439
H       11.38724237      17.42031683      10.84874540
Pb       6.68393458      13.09396256      12.96872588
I        9.91162880      13.28413073      12.82152786
I        6.49228093      16.28715806      12.65092902
I        6.75769061      13.39118963      16.19733268
C        9.99494105      16.47751459      16.44739617
H        9.61282530      16.54338795      17.47009766
N       11.23316271      16.06869999      16.25705048
H       11.83569836      15.85094832      17.04742117
H       11.65581088      16.03986343      15.32389697
N        9.18020809      16.78955072      15.45898369
H        9.49309834      16.79193098      14.49076746
H        8.25805185      17.17806374      15.64629133
Pb       6.76705010      13.09259491      19.48983959
I       -3.09843176       6.48375186       6.60418415
I        6.93588786      16.32319849      19.61932287
I       -6.18553872       6.27627291       9.73690961
C       -3.26069422       9.68945666       9.54148745
H       -3.91614320       9.57002436       8.67319245
N       -2.65728132      10.84703398       9.71540168
H       -2.78415090      11.60582361       9.04751167
H       -2.13213712      11.05185382      10.56538729
N       -3.11568894       8.66809319      10.36020892
H       -2.43515133       8.69842765      11.11929209
H       -3.62548214       7.80184995      10.20478339
Pb       6.79276442      19.48731961      12.91827025
I       10.08262462      19.39902057      12.91943868
I       20.05338019      16.38376978       0.05496720
I        6.68490468      19.45441347      16.26637239
C        9.93386363      22.97463203      16.30033364
H        9.13182546      23.70981452      16.18465163
N       10.80493754      23.15738129      17.27028505
H       10.69380581      23.92840140      17.93188854
H       11.56445563      22.49710863      17.43706863
N        9.98582616      21.96502206      15.45954158
H       10.71182534      21.24953444      15.52939396
H        9.30313818      21.87575968      14.70937371
Pb       6.81385090      19.57950281      19.58663851
I       10.09926614      19.74992032      19.59498444
I       19.79912307      16.47371090       6.34185150
I       -6.14093353      13.06883198       9.76733358
C        9.83396114       9.79781125      -3.21413984
H        8.93326418       9.46094461      -3.73447820
N        9.81422788       9.88313929      -1.89975971
H        8.97075536       9.67392318      -1.36496805
H       10.66283172      10.11189427      -1.37662428
N       -2.05893530      16.45493672       9.08762089
H       -1.21104036      16.81856038       9.52017020
H       -2.06188127      16.38504148       8.07675359
Pb      13.32651681      13.19767682       0.00251703
I        3.55315859      19.53924549      12.87693993
I       -0.11801836       3.22637480       6.78311606
I       13.38750574      13.07992894       3.20906083
C       16.58095893      16.37356396       3.52778519
H       16.46856547      15.76721069       4.43089480
N       17.79684265      16.61137269       3.07864107
H       18.60871135      16.26482089       3.58135390
H       17.95852422      17.10117617       2.20009244
N       15.49850628      16.82657761       2.93285944
H        2.35448562       4.25155643       8.62162516
H       14.57867597      16.65521202       3.32731393
Pb      13.18923561      13.18977776       6.41432930
I       16.48408408      13.26899787       6.67999007
I       13.35619486      16.45293048       6.10527453
I       13.27093735      13.46678131       9.70789624
C       16.57741145      16.68103783       9.88110664
H       17.27614865      17.50128327       9.69151747
N       16.73615153      15.96528403      10.97446773
H       17.49723708      16.16270388      11.62475454
H       16.13149501      15.17524025      11.19976743
N       15.60951727      16.46928801       9.01276125
H       14.95615004      15.68853226       9.12094483
H       15.53930520      17.02693107       8.16574206
Pb      13.14455489      13.12444385      12.92543053
I        3.28675506       6.19408517      -0.00476027
I       13.23467610      16.40368855      13.11045294
I       -0.05729997       6.12857475       3.20973965
C        3.25701080       9.77303660       3.09456104
H        2.73195727      10.29283617       2.28858223
N        3.40273380       8.46374336       3.01252087
H        3.11940901       7.94503582       2.18166009
H        3.84666394       7.93166060       3.75931429
N        3.70690801      10.47714971       4.11407751
H        4.34835780      10.07577694       4.80556645
H        3.56035519      11.47956728       4.16821186
Pb      13.36747114      19.70834642      13.07925347
I       16.58221689      19.42500675      12.98459390
I       13.62140235      22.95546305      13.06198047
I       13.21418847      19.93387214      16.28851371
C        3.19257810      16.45139136       3.13626483
H       15.43093853      23.77327502      16.16290690
N       16.75078264      22.68081762      14.99548185
H       16.24166576      22.89162814      14.14006515
H        4.42917357      15.37585191       1.91443267
N        3.76508476      16.15651952       4.28321559
H        4.57740931      15.54084807       4.33017242
H        3.40084053      16.52048363       5.15956975
Cs       3.53774032      16.21645108       9.83456473
