233
Lattice="-12.957396986651146 6.351727325886291 13.017959588757243 13.11604327292129 6.668741413988977 13.017959588757243 13.195366416056363 13.17897578392661 -6.508979794378622" Properties=species:S:1:pos:R:3 pbc="T T T"
Pb      -6.55999707       6.53609073      13.04427366
I       -3.19967604       6.55716757      12.94109584
I       -6.37885889       9.73281814      12.73676627
I        6.45783875      19.75210966       9.83845406
C       -3.20195462       9.71591733      16.42677713
H       -3.71039584      10.10170611      17.31499638
N       -2.49911541      10.55392696      15.69321829
H       -2.42655936      11.53593776      15.93923926
H       -1.90601848      10.23453399      14.92106655
N       -3.32154887       8.43443142      16.13701224
H       -2.99375405       8.04641662      15.24852481
H        9.34775758      20.98938059      10.23434959
Pb       0.13986224      19.45844172       6.45582069
I        3.43049753      19.85226076       6.49630629
I       12.89667334       9.81239237      12.80403691
I       13.16580078      13.06158186      -3.30959012
C        3.42817178       3.33999681       3.20172191
H        4.18185285       3.49130522       2.42334836
N        2.35620520       2.63251347       2.90822532
H        2.25041481       2.19204526       1.99704565
H       14.83134834      15.62666684      -2.90295507
N        3.63409688       3.87289407       4.38755879
H        2.95272213       3.76125066       5.14213425
H        4.47141667       4.41622087       4.58076202
Pb       0.18569620       6.45149967       6.47025857
I        3.34995706       6.96500566       6.64940696
I       -0.09898035       9.74862843       6.16051696
I        0.37773524       6.34915480       9.74511632
C        3.25148783       9.83343225       9.62572630
H        2.55367089       9.91339944       8.78875926
N        3.95271178      10.89386224       9.96495497
H        3.87348298      11.75798548       9.43370582
H        4.62602219      10.86762846      10.73151990
N        3.35001830       8.67833224      10.25083440
H        3.99184645       8.54574829      11.03057450
H        2.77466895       7.88449038       9.97656469
Pb       0.08790440       6.43663300      13.06634373
I        3.30263465       6.18421734      12.92261761
I        0.13342864       9.72680785      13.13056786
I       13.52809145      19.65724465       9.74520564
C        3.53186821      10.03033516      16.24672711
H        3.96472100      10.99275556      15.96313031
N        3.50168333       9.70573080      17.52277152
H        3.82117707      10.36246290      18.23276446
H       16.39948195      21.96029460      11.33236281
N        3.06985051       9.23961764      15.29711110
H        2.51966178       8.40736014      15.51349907
H        3.13671595       9.50711096      14.32242927
Pb       0.09874778      13.04227546       6.47311103
I        3.31834118      13.01488961       6.89381083
I        0.39655521      16.20241722       6.97611099
I        0.09106473      12.64809251       9.71007045
Pb       0.12542847      13.06667904      12.94553599
I        3.43720917      13.52298733      12.93325351
I        0.04264881      16.27740883      12.72290769
I        0.14740343      13.31035066      16.23372320
C        3.42395155      16.19612429      16.07757267
H        3.37952282      15.76043148      15.07453245
N        4.13811168      15.57742418      16.99342834
H        4.69619403      14.75367004      16.76507011
H        4.23209894      15.94135295      17.94061025
N        2.74416234      17.29769191      16.31885867
H        2.78769686      17.76542446      17.22879756
H        2.23739703      17.77311719      15.57806599
Pb       0.15629847      12.90587926      19.39845814
I        3.44213759      12.91025506      19.49317267
I       13.08236122       9.87728938       6.71416425
I        0.44171435      12.60344090      22.75300219
C        3.48046033      16.33024219      23.08097905
H        3.86616977      16.04528980      24.06438541
N       16.35613100      11.25922607       9.76836587
H       16.55302921      11.96008600      10.48304273
H       16.16832217      11.58705928       8.81583171
N        3.13219513      15.37207986      22.24501427
H        2.64440664      15.57579874      21.37293140
H        3.21215735      14.39569676      22.50427795
Pb       6.64022923       6.61062098       0.07115413
I       -3.08944471      13.04910756      13.04554657
I        6.55843329       9.90306671       0.42818047
I        6.48774515       6.43047334       3.34953826
C       10.11796815       9.92145259       3.31147886
H       11.15062559      10.03690060       3.65093575
N        9.67569039      10.71307584       2.35626771
H       10.26513152      11.44126781       1.96152921
H        8.75917835      10.56263930       1.92185925
N        9.36819871       9.00061886       3.88332499
H        8.40273482       8.84363190       3.59878553
H        9.73233074       8.38115425       4.60795836
Pb       6.58948271       6.66869554       6.59594714
I        9.86926853       6.34602765       6.42864542
I        6.69640938       9.89465132       6.65788767
I        6.87642007       6.83426961       9.86472745
C       10.17186290      10.05736196       9.80710157
H       11.20716677      10.33690018      10.02348068
N        9.35311657       9.88462993      10.82528166
H        9.66480390      10.08262332      11.77047843
H        8.42520370       9.48115420      10.70670203
N        9.81167643       9.90495378       8.55137966
H        8.83171424       9.80391316       8.26319609
H       10.50179993      10.02266588       7.81047320
Pb       6.57342697       6.53469284      13.13645702
I        9.80994619       6.31864182      12.92870688
I        6.18883589       9.86472017      13.02810796
I       19.66925480      19.86685586       9.84022464
C        9.82409091       9.97190247      16.03822359
H       10.10889992      10.29250157      15.03244854
N        8.57372265       9.61701833      16.25602184
H        7.88723192       9.62946355      15.50588701
H        8.22802911       9.42029511      17.19743555
N       -2.36344006       3.29030130       3.95450184
H       -2.52819375       2.84740745       4.85727693
H       -1.43760925       3.67117496       3.77759135
Pb       6.64018206      13.20086626       0.09105789
I        9.89246647      13.43142650      -0.28865505
I        6.86287725      16.39412354       0.14102066
I        6.51485730      13.14530569       3.34992400
C       10.11091904      16.35200446       3.55463286
H       10.84639381      15.74838154       4.09515974
N        8.84637571      15.99014473       3.61557950
H        8.56593169      15.16145578       4.13373654
H        8.11336319      16.54636205       3.17543188
N       10.53726983      17.39015534       2.87077770
H       -3.27827494       4.77572594       8.79274979
H       -1.68728814       4.51621390       9.42535046
Pb       6.59038847      13.16099035       6.69313588
I        9.77320558      13.33599061       6.37108486
I        6.24346532      16.41182932       6.85327129
I        6.76208994      13.26603763       9.86549498
C       10.17719516      16.42075262       9.63831959
H       10.98088968      16.21682660       8.92418365
N        9.33042963      17.38948034       9.35400387
H        9.42578646      17.93472274       8.49782908
H        8.54137448      17.61039217       9.96115331
N       10.10873745      15.69696528      10.73337523
H        9.35871462      15.82780929      11.41774774
H       10.77706072      14.94866730      10.90241939
Pb       6.68313671      13.16927038      13.09309987
I        9.91248595      12.89593954      13.23172275
I        7.04840171      16.40491940      12.85307080
I        6.84797657      13.18473220      16.35991456
C        9.83530263      16.38850252      16.01057485
H        8.98793272      16.25712287      15.33081737
N       10.75363555      17.27750200      15.69201132
H       10.66274637      17.84257384      14.84823463
H       11.56392690      17.45102404      16.28478573
N        9.88679400      15.65420197      17.10100687
H       10.65993690      15.73590662      17.76545058
H        9.17722473      14.95130945      17.29172510
Pb       6.70542184      13.13980845      19.67971708
I       -3.15158358       6.44541719       6.64346005
I        6.54056668      16.39300917      19.78504394
I       -6.43855835       6.13411713       9.84816354
C       -3.09090354       9.66415270       9.82340912
H       -3.78371363       9.22497719      10.54657714
N       -3.56781101      10.49111976       8.91587962
H       -4.55667713      10.71872838       8.87711843
H       -2.96955675      10.95768416       8.23233002
N       -1.81468563       9.33567504       9.88767398
H       -1.12909964       9.77198495       9.27345618
H       -1.46010921       8.71836061      10.61155198
Pb       6.63796670      19.65717599      13.07973232
I        9.92920563      19.74806961      12.93848927
I       19.50907593      16.55440840       0.32569575
I        6.65514759      19.66448893      16.33502147
C        9.99497613      22.52727964      16.28663466
H       10.14937135      21.48976085      15.98002795
N        8.75988975      22.96495942      16.42257857
H       20.93316079      15.98925997       3.22643348
H       21.50282546      17.60188127       3.55926387
N       11.05755648      23.27340084      16.50504274
H       10.98301454      24.21630968      16.88471172
H       11.98877060      22.89055325      16.37598300
Pb       6.68593487      19.64136644      19.53390343
I        9.92414397      19.70516918      19.27882971
I       19.36038484      16.51077805       6.79183727
I       -6.08955341      13.31444666       9.83806188
C       10.02812598      10.04449314      -3.16921169
H       10.80073834      10.81936881      -3.15008206
N       -2.75029597      15.35661199       9.06231485
H       -1.91856323      15.28561319       8.48003837
H       -3.43978745      14.60656299       9.00273806
N        8.96736095      10.20079774      -2.40488124
H        8.23586383       9.48979228      -2.36317150
H        8.87009026      11.02263353      -1.81488931
Pb      13.15319310      13.13397269      -0.11031201
I        3.42373278      19.09830871      12.99872021
I        0.53968286       3.21184410       6.41095068
I       12.76210562      13.14563967       3.16716446
C       16.45721829      16.28678902       3.04809810
H       16.72789311      15.62436672       2.22228518
N       17.17830344      17.37108745       3.23961143
H        4.75637155       4.41187925       9.12537342
H       17.00087157      17.99890085       4.02873829
N       15.43400969      15.95191617       3.80919500
H       15.09149872      16.56174418       4.55243932
H       14.88150130      15.11963095       3.61441550
Pb      12.96042997      13.12750820       6.48221785
I       16.29906062      12.94001424       6.43625392
I       12.95530570      16.40409195       6.52672351
I       12.91529985      13.30103338       9.73101180
C       16.19685943      16.42625268      10.03938087
H       15.52811412      16.42665442      10.90548529
N       17.20658617      17.26896156      10.02535400
H       17.33239886      17.94952682      10.77042350
H       17.85482402      17.31424639       9.23699547
N       15.95375266      15.56915187       9.06849505
H       16.53393180      15.53854390       8.23154683
H       15.14691570      14.94805594       9.11237812
Pb      13.17592254      13.06681875      13.02624297
I        3.32111276       6.52949697      -0.03776217
I       13.33361824      16.35807613      13.06738156
I        0.07876624       6.16233684       3.23047690
C        3.34130355       9.89533943       3.04023534
H        3.89135401       9.81670840       2.09773144
N        2.26616622       9.15372220       3.20736948
H        1.92077757       8.55026068       2.46681251
H        1.71563737       9.19277883       4.06786887
N        3.79508236      10.72331708       3.95687443
H        3.32095013      10.85329453       4.84961576
H        4.61796328      11.30371669       3.78475320
Pb      13.20493216      19.68449116      12.96999692
I       16.49651945      19.74566159      13.03773572
I       13.22424808      22.88479515      12.70578141
I       13.27302066      20.06418518      16.25583732
C        3.54658087      16.00460555       3.28762608
H        4.15831370      15.10227883       3.37398015
N       15.99378540      22.87045314      15.18898584
H       15.99051214      22.16783054      14.45201836
H        2.18320034      10.49767873      21.58337305
N        3.52280433      16.84314195       4.30160526
H        2.93935931      17.68009019       4.28415017
H        4.11678061      16.69986598       5.11897330
Cs       3.41151617      16.37346879       9.86817943
