233
Lattice="-12.957396986651146 6.351727325886291 13.017959588757243 13.11604327292129 6.668741413988977 13.017959588757243 13.195366416056363 13.17897578392661 -6.508979794378622" Properties=species:S:1:pos:R:3 pbc="T T T"
Pb      -6.48204855       6.48834945      12.90173460
I       -3.23953007       6.69569992      12.91248996
I       -6.44144623       9.74145615      13.02557675
I        6.92521900      19.25138948       9.69720224
C       -3.01304605       9.65827572      16.23352976
H       -2.14621131      10.16117615      16.66873067
N       -3.92439493      10.39133100      15.62332164
H       -3.79712267      11.39345591      15.51912179
H       -4.66460782       9.96857280      15.05372744
N       -3.11376385       8.34919083      16.35873786
H        9.25909661      21.01838299       9.52603852
H       10.80486009      20.98349346      10.31153922
Pb       0.19275917      19.50407080       6.63819134
I        3.47947355      19.43925511       6.76340510
I       13.41866057       9.90109742      13.13399295
I       13.29560191      13.08501243      -3.18643575
C        3.37913431       3.17193893       3.02259913
H        2.98393269       2.95696292       2.02613962
N        4.41124172       3.98240407       3.13120487
H        4.86731095       4.36587443       2.30854436
H        4.81405722       4.21208257       4.04130461
N        2.79150417       2.61172658       4.06011264
H        3.14134694       2.74689113       5.00627359
H       15.20435529      15.15007691      -2.56686658
Pb       0.15661963       6.46384831       6.51208704
I        3.35621096       6.23697288       6.43868813
I        0.28887661       9.74453855       6.28575877
I        0.09661476       6.79426250       9.80167354
C        3.60050158       9.64070960       9.84709128
H        4.43763099       9.15857379      10.36038343
N        2.97214112      10.61790241      10.46438252
H        3.27554115      10.94960536      11.37644265
H        2.15245863      11.08383451      10.05959683
N        3.27266115       9.22141265       8.64111383
H        2.46225889       9.59294917       8.14168034
H        3.74906905       8.43629551       8.20273059
Pb       0.06123747       6.66148700      13.00529855
I        3.29315491       6.83994434      12.90824126
I        0.02567139       9.81098422      13.39709531
I       13.43158680      19.39047967       9.81807946
C        3.50937329       9.73740891      16.38929280
H        4.19882820       9.12887860      16.98084054
N        2.21634667       9.52009445      16.51688283
H        1.86089313       8.80712356      17.14674557
H        1.52920932      10.04975194      15.98007094
N        4.01228028      10.64931573      15.58455495
H        3.42736839      11.25031556      15.00055680
H        5.01565116      10.79483676      15.51496022
Pb       0.15578243      12.98533183       6.47226215
I        3.43346321      13.04765462       6.53868700
I        0.42001571      16.24610793       6.70955443
I       -0.04596649      12.53184327       9.77310319
Pb       0.11061597      13.02873924      13.08480622
I        3.36070266      13.29273746      13.06989876
I        0.20472148      16.26866515      12.85381547
I        0.19316229      12.91310026      16.31144845
C        3.29204549      16.09093954      16.27306822
H        3.82338555      15.13700575      16.32406164
N        3.97097182      17.16817101      15.92461979
H        4.94534306      17.10875848      15.64489173
H        3.49496775      18.04615999      15.72585805
N        2.01343852      16.12782962      16.58277033
H        1.49230307      17.00939921      16.59190046
H        1.49821616      15.27111870      16.78557512
Pb       0.08277765      13.01801971      19.59387381
I        3.37625225      13.29849532      19.77599358
I       12.82638822       9.89891184       6.60734250
I       -0.13971917      13.22455018      22.85299185
C        3.39450148      16.36983994      22.79373786
H       16.50285055      10.83110523      10.49305658
N        3.62158838      16.59632135      21.51549823
H        3.87282884      17.52025641      21.16553821
H        3.56051252      15.83066586      20.83778121
N        2.99516255      15.19663404      23.24590827
H        2.79915237      14.43274118      22.59966294
H        2.81366190      15.03322823      24.23285460
Pb       6.55676557       6.79472526      -0.11633051
I       -3.12198376      13.26737112      13.18177784
I        6.36266118       9.93183475      -0.37975193
I        6.38640935       7.07901214       3.25177191
C       10.05458885       9.78664320       3.25553930
H       10.92741668       9.13397367       3.16160573
N        9.32025609      10.01218869       2.18653146
H        9.51390145       9.53060103       1.31194212
H        8.53215567      10.66269309       2.21485818
N        9.78883385      10.31247264       4.43308010
H        8.96805565      10.90068396       4.57749081
H       10.40994357      10.15853673       5.22656613
Pb       6.67890515       6.54385230       6.49057232
I        9.83661484       6.30797059       6.27353529
I        6.80411689       9.79412256       6.91350454
I        6.54385546       6.18840378       9.72548747
C        9.85264949      10.01447239       9.66905398
H        9.40520909      10.82371984       9.08427825
N        9.24482638       8.84617517       9.68930675
H        8.38212760       8.70121913       9.16961466
H        9.55004001       8.10113652      10.31701840
N       10.97285167      10.25826963      10.31686489
H       11.49352255       9.51220327      10.77793801
H       11.43405909      11.16658039      10.25125980
Pb       6.55333386       6.68335483      12.96192136
I        9.84900565       6.77368308      13.00074376
I        6.63090301       9.91692325      12.76542562
I       19.54117094      20.05819179       9.72898407
C        9.90984122       9.75468989      16.02785089
H        9.41350170       9.99991142      15.08445608
N       -3.90514021       2.46964205       3.94236874
H        8.24620769       8.85651531      16.79392004
H        9.73087430      15.25580856      -1.73128230
N       -1.94548063       3.43270138       3.17383063
H       -1.45943914       3.30382351       4.06558368
H       11.70697718      10.52277227      15.43746131
Pb       6.56713125      13.13939477       0.04554546
I        9.97332834      13.13511240       0.02963995
I        6.67503595      16.40710700       0.03860797
I        6.90609726      12.77279877       3.26965780
C        9.87658852      16.48331781       3.33245555
H        9.07931830      17.05195560       2.84528773
N       10.86827008      16.02809339       2.59309087
H       10.91120374      16.21858342       1.59672595
H       11.56544739      15.37932130       2.96474669
N        9.81148767      16.29374073       4.63425920
H       10.57267016      15.85742972       5.15443090
H        8.99014496      16.58026128       5.16629365
Pb       6.70529829      13.10129420       6.61167326
I        9.94656707      13.23651429       6.82437631
I        6.48825808      16.35381462       6.28054341
I        6.37600913      13.48658309       9.75819388
C       10.14076337      16.25596045       9.71500926
H       11.02351870      15.61958699       9.82332385
N        9.19189661      16.16572343      10.62216376
H        9.25882125      15.48635247      11.37896179
H        8.34263457      16.72868925      10.56639602
N       10.08050862      17.07017768       8.68304478
H        9.31244549      17.73132263       8.56599233
H       10.84318311      17.10960083       8.00794737
Pb       6.68856532      13.14969011      13.00428514
I        9.92935440      13.28248303      13.01196607
I        6.45458480      16.36420477      13.05942298
I        6.83257668      13.06160552      16.25166263
C       10.28916947      16.23936098      16.20626019
H       11.25369764      15.93771644      15.78727142
N        9.45361049      16.90060058      15.43315980
H        9.71746075      17.17850501      14.49165859
H        8.58506556      17.29861804      15.79549491
N       10.01752337      15.91922704      17.45319607
H        9.10141647      16.10681575      17.87847835
H       10.68742495      15.40005567      18.01314881
Pb       6.70876027      13.12906527      19.50313937
I       -3.15455070       6.27707099       6.70555375
I        6.89732720      16.41462022      19.33854918
I       -6.35069042       6.56107254       9.73961997
C       -3.27409311       9.46779054       9.83046033
H       -4.12435719       8.77913095       9.82984890
N       -2.53641028       9.54513206       8.74208854
H       -2.69604539       8.90571382       7.96747978
H       -1.71655605      10.15026074       8.69448326
N       -3.04863059      10.18440024      10.91160538
H       -2.25897148      10.82749373      10.96947961
H       -3.64907775      10.09380144      11.72595535
Pb       6.76705958      19.59601709      12.92863856
I       10.03604322      19.61501123      12.97653141
I       19.46842170      16.44763180      -0.12817518
I        6.83627953      19.44196058      16.22434658
C        9.99098495      23.06941024      16.26888565
H        9.36377890      23.95887697      16.37414617
N        9.40390386      21.89047345      16.22486335
H        8.39674821      21.78514460      16.29258108
H        9.95171383      21.03551273      16.14470570
N       11.29682738      23.21340345      16.19156073
H       11.90291793      22.39969639      16.05628831
H       11.73101227      24.13934039      16.20133284
Pb       6.86946800      19.66800871      19.59153505
I       10.06370551      19.76997558      19.55737018
I       19.85697680      16.59558835       6.80394782
I       -6.22436435      12.80978946       9.74040621
C        9.85774150       9.93195168      -3.45865559
H        9.36866105       9.55766467      -4.36346241
N        9.21792735      10.81731268      -2.72343479
H        8.28945259      11.14427017      -2.97913611
H        9.64348388      11.25867857      -1.90240478
N       -1.90120731      15.82763565       9.86267508
H       -1.42079742      16.08964666      10.73066231
H       -1.42966917      15.15183693       9.26838088
Pb      13.22757646      13.12952054       0.05742117
I        3.50644964      19.37901729      12.90806380
I        0.05496313       3.21765812       6.37315804
I       13.33514215      13.15555151       3.33187825
C       16.37795355      16.54655856       3.08096039
H       16.72340061      17.12051977       2.21566994
N       15.34437012      16.99551102       3.75798812
H       14.87708679      17.87049737       3.50677459
H       14.96552286      16.50172326       4.57080622
N       17.01499105      15.43496952       3.39248383
H       16.76921092      14.88674885       4.22300033
H       17.80565469      15.10737624       2.84474385
Pb      13.17269387      13.15488119       6.64091160
I       16.48170244      13.44792668       6.55968784
I       13.11821614      16.42078829       6.56383482
I       13.11965907      13.28268891       9.84288341
C       16.55607392      16.34892320       9.73603423
H       17.31834910      15.56933808       9.82871537
N       15.47215170      16.25324049      10.47715140
H       15.33966166      15.46423272      11.10437637
H       14.73545937      16.96084417      10.43305581
N       16.77388433      17.33647116       8.89429828
H       16.11052686      18.10332973       8.78132199
H       17.61676961      17.35222515       8.32089129
Pb      13.19043084      13.16546245      13.13087104
I        3.32618695       6.48360140      -0.32020183
I       13.23294072      16.42065728      13.38222916
I        0.13507378       6.50898523       3.30408751
C        3.23269638       9.98200491       3.31566944
H        2.50169156      10.78586329       3.18814328
N        3.35106188       9.08703160       2.35827636
H        2.75087393       9.11816490       1.53800455
H        4.04901863       8.34091123       2.41619375
N        3.94518863       9.95292669       4.42328430
H        4.67909597       9.25773612       4.56202590
H        3.83946654      10.68134804       5.12997324
Pb      13.27575052      19.64280143      13.09790923
I       16.51987818      19.92585267      13.14008800
I       13.36842120      22.92175799      13.07137886
I       12.95784020      19.85080839      16.30386030
C        3.43963482      16.30058531       3.62177584
H        3.65652300      16.29646797       4.69250750
N        4.44133023      16.13158380       2.78507097
H        5.38458312      15.99390804       3.12894229
H       17.43467202      22.80078285      14.79189700
N       15.30945155      23.15173348      16.25302834
H       15.02093797      23.10073180      15.27130370
H       14.57971975      23.26530014      16.95200263
Cs       3.53285931      16.38963080       9.75207518
