39
Lattice="12.794630052655515 -6.044561981092832e-18 -2.648027204167534e-18 1.800199171791114e-15 12.794630052655465 5.622564854100682e-14 -5.691634981683643e-16 5.515398801554192e-14 12.794630052655533" Properties=species:S:1:pos:R:3:spacegroup_kinds:I:1:forces:R:3:energies:R:1 spacegroup="P m -3 m" unit_cell=conventional energy=-110.83361575562088 stress="0.000658898092329542 8.310961696124173e-18 -3.902946886930676e-18 8.310961696124173e-18 0.0006588980923288197 1.5672020902688426e-16 -3.902946886930676e-18 1.5672020902688426e-16 0.002055434563904362" free_energy=-110.83361575562088 pbc="T T T"
Cs      -0.04691473       0.00000000       0.04691473        0      -0.00417892      -0.00417892      -0.00000000      -3.48931612
Pb       3.19865751       3.20898928       3.19865751        1       0.00000000       0.00000000       0.01048849      -4.16882911
I        3.19865751       3.28194287      -0.03226483        2      -0.00000000       0.00029549      -0.00112827      -2.08089820
I       -0.00021533       3.23213553       3.19865751        2      -0.00029549      -0.00000000       0.00112827      -2.08089820
I        3.19865751       0.00000000       3.19865751        2       0.00000000      -0.00029549       0.00112827      -2.08089820
Cs      -0.04691473       0.00000000       6.35040030        0       0.00686327       0.00686327      -0.00000000      -3.48853315
Pb       3.19865751       3.09418156       9.59597254        1       0.00000000      -0.00000000      -0.01048849      -4.16882911
I        3.19865751       3.28194287       6.42957986        2      -0.00000000      -0.00000000      -0.00000000      -2.11740775
I        0.03226483       3.28194287       9.59597254        2      -0.00029549      -0.00000000      -0.00112827      -2.08089820
I        3.19865751       0.00000000       9.59597254        2       0.00000000      -0.00029549      -0.00112827      -2.08089820
Cs      -0.16405062       6.39731503       0.16405062        0      -0.00417892       0.00417892       0.00000000      -3.48931612
Pb       3.19865751       9.58564077       3.19865751        1       0.00000000       0.00000000       0.00062556      -4.45148425
I        3.19865751       9.51268718      -0.03226483        2      -0.00000000       0.00000000      -0.00000000      -2.05260257
I       -0.00021533       9.56249453       3.19865751        2      -0.00085342       0.00000000       0.00837049      -2.08365501
I        3.19865751       6.39731503       3.19865751        2      -0.00000000       0.00029549       0.00112827      -2.08089820
Cs      -0.16405062       6.39731503       6.23326440        0       0.00686327      -0.00686327      -0.00000000      -3.48853315
Pb       3.19865751       9.70044850       9.59597254        1       0.00000000       0.00000000      -0.00062556      -4.45148425
I        3.19865751       9.51268718       6.42957986        2      -0.00000000      -0.00000000      -0.00000000      -2.08253090
I        0.03226483       9.51268718       9.59597254        2      -0.00085342       0.00000000      -0.00837049      -2.08365501
Cs       6.44422976       0.00000000       0.04691473        0       0.00417892      -0.00417892      -0.00000000      -3.48931612
Pb       9.59597254       3.18947069       3.19865751        1      -0.00000000       0.00000000       0.00062556      -4.45148425
I        9.59597254       3.23213553       0.00021533        2       0.00000000      -0.00000000      -0.00000000      -2.05260257
I        6.39753035       3.23213553       3.19865751        2       0.00029549       0.00000000       0.00112827      -2.08089820
I        9.59597254       0.00000000       3.19865751        2      -0.00000000      -0.00085342       0.00837049      -2.08365501
Cs       6.44422976       0.00000000       6.35040030        0      -0.00686327       0.00686327      -0.00000000      -3.48853315
Pb       9.59597254       3.20898928       9.59597254        1       0.00000000      -0.00000000      -0.00062556      -4.45148425
I        9.59597254       3.23213553       6.39709970        2       0.00000000      -0.00000000      -0.00000000      -2.08253090
I        6.36505019       3.28194287       9.59597254        2       0.00029549       0.00000000      -0.00112827      -2.08089820
I        9.59597254       0.00000000       9.59597254        2      -0.00000000      -0.00085342      -0.00837049      -2.08365501
Cs       6.56136565       6.39731503       0.16405062        0       0.00417892       0.00417892       0.00000000      -3.48931612
Pb       9.59597254       9.60515936       3.19865751        1      -0.00000000      -0.00000000       0.00285977      -4.43809526
I        9.59597254       9.56249453       0.00021533        2       0.00000000       0.00000000       0.00000000      -2.10926144
I        6.39753035       9.56249453       3.19865751        2       0.00085342      -0.00000000       0.00837049      -2.08365501
I        9.59597254       6.39731503       3.19865751        2       0.00000000       0.00085342       0.00837049      -2.08365501
Cs       6.56136565       6.39731503       6.23326440        0      -0.00686327      -0.00686327      -0.00000000      -3.48853315
Pb       9.59597254       9.58564077       9.59597254        1       0.00000000       0.00000000      -0.00285977      -4.43809526
I        9.59597254       9.56249453       6.39709970        2       0.00000000      -0.00000000      -0.00000000      -2.08907114
I        6.36505019       9.51268718       9.59597254        2       0.00085342      -0.00000000      -0.00837049      -2.08365501
I        9.59597254       6.39731503       9.59597254        2       0.00000000       0.00085342      -0.00837049      -2.08365501
39
Lattice="12.794630052655515 -6.044561981092832e-18 -2.648027204167534e-18 1.800199171791114e-15 12.794630052655465 5.622564854100682e-14 -5.691634981683643e-16 5.515398801554192e-14 12.794630052655533" Properties=species:S:1:pos:R:3:spacegroup_kinds:I:1:forces:R:3:energies:R:1 spacegroup="P m -3 m" unit_cell=conventional energy=-110.83361575562088 stress="0.000658898092329542 8.310961696124173e-18 -3.902946886930676e-18 8.310961696124173e-18 0.0006588980923288197 1.5672020902688426e-16 -3.902946886930676e-18 1.5672020902688426e-16 0.002055434563904362" free_energy=-110.83361575562088 pbc="T T T"
Cs      -0.04484647       0.09285144       0.11172600        0      -0.00417892      -0.00417892      -0.00000000      -3.48931612
Pb       3.19865751       3.13174701       3.26605707        1       0.00000000       0.00000000       0.01048849      -4.16882911
I        3.19865751       3.62079848       0.01268181        2      -0.00000000       0.00029549      -0.00112827      -2.08089820
I        0.00019192       3.17795277       3.23511876        2      -0.00029549      -0.00000000       0.00112827      -2.08089820
I        3.19865751      -0.07605582       2.65910858        2       0.00000000      -0.00029549       0.00112827      -2.08089820
Cs       0.01064011      -0.10449123       6.35427444        0       0.00686327       0.00686327      -0.00000000      -3.48853315
Pb       3.19865751       3.00878563       9.64137579        1       0.00000000      -0.00000000      -0.01048849      -4.16882911
I        3.19865751       2.47053295       6.46159982        2      -0.00000000      -0.00000000      -0.00000000      -2.11740775
I        0.04208202       3.38012783       9.62287730        2      -0.00029549      -0.00000000      -0.00112827      -2.08089820
I        3.19865751      -0.05268781      10.18893903        2       0.00000000      -0.00029549      -0.00112827      -2.08089820
Cs      -0.10553165       6.32176621       0.07768766        0      -0.00417892       0.00417892       0.00000000      -3.48931612
Pb       3.19865751       9.50597133       3.17052666        1       0.00000000       0.00000000       0.00062556      -4.45148425
I        3.19865751       8.86777508      -0.04866226        2      -0.00000000       0.00000000      -0.00000000      -2.05260257
I        0.00083381       9.52043710       3.14018522        2      -0.00085342       0.00000000       0.00837049      -2.08365501
I        3.19865751       6.32315204       3.82361465        2      -0.00000000       0.00029549       0.00112827      -2.08089820
Cs      -0.22757293       6.52884454       6.17488596        0       0.00686327      -0.00686327      -0.00000000      -3.48853315
Pb       3.19865751       9.68516254       9.63499036        1       0.00000000       0.00000000      -0.00062556      -4.45148425
I        3.19865751      10.00051192       6.41780950        2      -0.00000000      -0.00000000      -0.00000000      -2.08253090
I        0.03042508       9.49772423       9.49680458        2      -0.00085342       0.00000000      -0.00837049      -2.08365501
Cs       6.44216149       0.09285144       0.11172600        0       0.00417892      -0.00417892      -0.00000000      -3.48931612
Pb       9.59597254       3.19608849       3.21616606        1      -0.00000000       0.00000000       0.00062556      -4.45148425
I        9.59597254       2.73337646      -0.00192044        2       0.00000000      -0.00000000      -0.00000000      -2.05260257
I        6.39712311       3.17795277       3.23511876        2       0.00029549       0.00000000       0.00112827      -2.08089820
I        9.59597254       0.00885984       3.72339845        2      -0.00000000      -0.00085342       0.00837049      -2.08365501
Cs       6.38667492      -0.10449123       6.35427444        0      -0.00686327       0.00686327      -0.00000000      -3.48853315
Pb       9.59597254       3.26276512       9.57932584        1       0.00000000      -0.00000000      -0.00062556      -4.45148425
I        9.59597254       3.86447418       6.39638579        2       0.00000000      -0.00000000      -0.00000000      -2.08253090
I        6.35523301       3.38012783       9.62287730        2       0.00029549       0.00000000      -0.00112827      -2.08089820
I        9.59597254       0.06012043       9.00221233        2      -0.00000000      -0.00085342      -0.00837049      -2.08365501
Cs       6.50284668       6.32176621       0.07768766        0       0.00417892       0.00417892       0.00000000      -3.48931612
Pb       9.59597254       9.62627742       3.12889295        1      -0.00000000      -0.00000000       0.00285977      -4.43809526
I        9.59597254      10.24917672      -0.04163456        2       0.00000000       0.00000000       0.00000000      -2.10926144
I        6.39648122       9.52043710       3.14018522        2       0.00085342      -0.00000000       0.00837049      -2.08365501
I        9.59597254       6.40767063       2.66502989        2       0.00000000       0.00085342       0.00837049      -2.08365501
Cs       6.62488796       6.52884454       6.17488596        0      -0.00686327      -0.00686327      -0.00000000      -3.48853315
Pb       9.59597254       9.64358712       9.58257950        1       0.00000000       0.00000000      -0.00285977      -4.43809526
I        9.59597254       9.18164462       6.35464716        2       0.00000000      -0.00000000      -0.00000000      -2.08907114
I        6.36688995       9.49772423       9.49680458        2       0.00085342      -0.00000000      -0.00837049      -2.08365501
I        9.59597254       6.45571108      10.16875899        2       0.00000000       0.00085342      -0.00837049      -2.08365501
39
Lattice="12.794630052655515 -6.044561981092832e-18 -2.648027204167534e-18 1.800199171791114e-15 12.794630052655465 5.622564854100682e-14 -5.691634981683643e-16 5.515398801554192e-14 12.794630052655533" Properties=species:S:1:pos:R:3:spacegroup_kinds:I:1:forces:R:3:energies:R:1 spacegroup="P m -3 m" unit_cell=conventional energy=-110.83361575562088 stress="0.000658898092329542 8.310961696124173e-18 -3.902946886930676e-18 8.310961696124173e-18 0.0006588980923288197 1.5672020902688426e-16 -3.902946886930676e-18 1.5672020902688426e-16 0.002055434563904362" free_energy=-110.83361575562088 pbc="T T T"
Cs      -0.19509936      -0.20907406      -0.01538210        0      -0.00417892      -0.00417892      -0.00000000      -3.48931612
Pb       3.19865751       3.36288684       3.12038138        1       0.00000000       0.00000000       0.01048849      -4.16882911
I        3.19865751       4.39558692      -0.24530429        2      -0.00000000       0.00029549      -0.00112827      -2.08089820
I        0.00890717       3.30238426       3.10916565        2      -0.00029549      -0.00000000       0.00112827      -2.08089820
I        3.19865751       0.13848163       2.52896533        2       0.00000000      -0.00029549       0.00112827      -2.08089820
Cs      -0.02574517       0.11925928       6.30199622        0       0.00686327       0.00686327      -0.00000000      -3.48853315
Pb       3.19865751       3.15479463       9.59457220        1       0.00000000      -0.00000000      -0.01048849      -4.16882911
I        3.19865751       2.75147308       6.31282502        2      -0.00000000      -0.00000000      -0.00000000      -2.11740775
I        0.03332969       3.19790353       9.42547196        2      -0.00029549      -0.00000000      -0.00112827      -2.08089820
I        3.19865751       0.11458712      10.29613801        2       0.00000000      -0.00029549      -0.00112827      -2.08089820
Cs      -0.19599361       6.49719124       0.06075225        0      -0.00417892       0.00417892       0.00000000      -3.48931612
Pb       3.19865751       9.72594547       3.24118865        1       0.00000000       0.00000000       0.00062556      -4.45148425
I        3.19865751       9.18103794      -0.00755964        2      -0.00000000       0.00000000      -0.00000000      -2.05260257
I        0.00248779       9.63111789       3.18918075        2      -0.00085342       0.00000000       0.00837049      -2.08365501
I        3.19865751       6.52354494       3.93417946        2      -0.00000000       0.00029549       0.00112827      -2.08089820
Cs      -0.32274300       6.29988550       6.14713428        0       0.00686327      -0.00686327      -0.00000000      -3.48853315
Pb       3.19865751       9.87325953       9.62954172        1       0.00000000       0.00000000      -0.00062556      -4.45148425
I        3.19865751      10.50059619       6.44392256        2      -0.00000000      -0.00000000      -0.00000000      -2.08253090
I        0.04683840       9.45940017       9.58879184        2      -0.00085342       0.00000000      -0.00837049      -2.08365501
Cs       6.59241439      -0.20907406      -0.01538210        0       0.00417892      -0.00417892      -0.00000000      -3.48931612
Pb       9.59597254       3.18940911       3.08965926        1      -0.00000000       0.00000000       0.00062556      -4.45148425
I        9.59597254       3.02734066      -0.09195074        2       0.00000000      -0.00000000      -0.00000000      -2.05260257
I        6.38840786       3.30238426       3.10916565        2       0.00029549       0.00000000       0.00112827      -2.08089820
I        9.59597254       0.00524948       3.25413259        2      -0.00000000      -0.00085342       0.00837049      -2.08365501
Cs       6.42306019       0.11925928       6.30199622        0      -0.00686327       0.00686327      -0.00000000      -3.48853315
Pb       9.59597254       3.15352299       9.51633300        1       0.00000000      -0.00000000      -0.00062556      -4.45148425
I        9.59597254       3.29638929       6.30063305        2       0.00000000      -0.00000000      -0.00000000      -2.08253090
I        6.36398534       3.19790353       9.42547196        2       0.00029549       0.00000000      -0.00112827      -2.08089820
I        9.59597254      -0.05553478       9.40460356        2      -0.00000000      -0.00085342      -0.00837049      -2.08365501
Cs       6.59330864       6.49719124       0.06075225        0       0.00417892       0.00417892       0.00000000      -3.48931612
Pb       9.59597254       9.61324929       3.17543168        1      -0.00000000      -0.00000000       0.00285977      -4.43809526
I        9.59597254       9.64450116      -0.04391006        2       0.00000000       0.00000000       0.00000000      -2.10926144
I        6.39482724       9.63111789       3.18918075        2       0.00085342      -0.00000000       0.00837049      -2.08365501
I        9.59597254       6.40238819       3.01509838        2       0.00000000       0.00085342       0.00837049      -2.08365501
Cs       6.72005803       6.29988550       6.14713428        0      -0.00686327      -0.00686327      -0.00000000      -3.48853315
Pb       9.59597254       9.53876919       9.53004572        1       0.00000000       0.00000000      -0.00285977      -4.43809526
I        9.59597254       9.36860003       6.35054809        2       0.00000000      -0.00000000      -0.00000000      -2.08907114
I        6.35047663       9.45940017       9.58879184        2       0.00085342      -0.00000000      -0.00837049      -2.08365501
I        9.59597254       6.34603918       9.62292377        2       0.00000000       0.00085342      -0.00837049      -2.08365501
39
Lattice="12.794630052655515 -6.044561981092832e-18 -2.648027204167534e-18 1.800199171791114e-15 12.794630052655465 5.622564854100682e-14 -5.691634981683643e-16 5.515398801554192e-14 12.794630052655533" Properties=species:S:1:pos:R:3:spacegroup_kinds:I:1:forces:R:3:energies:R:1 spacegroup="P m -3 m" unit_cell=conventional energy=-110.83361575562088 stress="0.000658898092329542 8.310961696124173e-18 -3.902946886930676e-18 8.310961696124173e-18 0.0006588980923288197 1.5672020902688426e-16 -3.902946886930676e-18 1.5672020902688426e-16 0.002055434563904362" free_energy=-110.83361575562088 pbc="T T T"
Cs      -0.23331601      -0.26117105      -0.07293020        0      -0.00417892      -0.00417892      -0.00000000      -3.48931612
Pb       3.19865751       3.33522445       3.24903820        1       0.00000000       0.00000000       0.01048849      -4.16882911
I        3.19865751       5.34617852      -1.05113651        2      -0.00000000       0.00029549      -0.00112827      -2.08089820
I        0.02201812       3.27297961       3.04162509        2      -0.00029549      -0.00000000       0.00112827      -2.08089820
I        3.19865751       0.13692616       3.38373856        2       0.00000000      -0.00029549       0.00112827      -2.08089820
Cs       0.06364501      -0.00799756       6.38931747        0       0.00686327       0.00686327      -0.00000000      -3.48853315
Pb       3.19865751       3.15402675       9.55134178        1       0.00000000      -0.00000000      -0.01048849      -4.16882911
I        3.19865751       3.37178077       6.35050909        2      -0.00000000      -0.00000000      -0.00000000      -2.11740775
I        0.03016951       3.01158655       9.40890158        2      -0.00029549      -0.00000000      -0.00112827      -2.08089820
I        3.19865751      -0.04680593       9.76909580        2       0.00000000      -0.00029549      -0.00112827      -2.08089820
Cs      -0.28998863       6.53385759       0.13654256        0      -0.00417892       0.00417892       0.00000000      -3.48931612
Pb       3.19865751       9.71217012       3.31485509        1       0.00000000       0.00000000       0.00062556      -4.45148425
I        3.19865751       9.85985966       0.10631999        2      -0.00000000       0.00000000      -0.00000000      -2.05260257
I       -0.00303086       9.61810503       3.22079001        2      -0.00085342       0.00000000       0.00837049      -2.08365501
I        3.19865751       6.50363501       3.46254463        2      -0.00000000       0.00029549       0.00112827      -2.08089820
Cs      -0.23331601       6.32438483       6.13614397        0       0.00686327      -0.00686327      -0.00000000      -3.48853315
Pb       3.19865751       9.64635322       9.73253947        1       0.00000000       0.00000000      -0.00062556      -4.45148425
I        3.19865751       9.78105359       6.53424118        2      -0.00000000      -0.00000000      -0.00000000      -2.08253090
I        0.02201812       9.43894012       9.67029464        2      -0.00085342       0.00000000      -0.00837049      -2.08365501
Cs       6.63063104      -0.26117105      -0.07293020        0       0.00417892      -0.00417892      -0.00000000      -3.48931612
Pb       9.59597254       3.15840365       3.09544085        1      -0.00000000       0.00000000       0.00062556      -4.45148425
I        9.59597254       3.12377425      -0.09578015        2       0.00000000      -0.00000000      -0.00000000      -2.05260257
I        6.37529690       3.27297961       3.04162509        2       0.00029549       0.00000000       0.00112827      -2.08089820
I        9.59597254      -0.01756614       3.10414095        2      -0.00000000      -0.00085342       0.00837049      -2.08365501
Cs       6.33367001      -0.00799756       6.38931747        0      -0.00686327       0.00686327      -0.00000000      -3.48853315
Pb       9.59597254       3.10723801       9.50455303        1       0.00000000      -0.00000000      -0.00062556      -4.45148425
I        9.59597254       3.16469219       6.29383120        2       0.00000000      -0.00000000      -0.00000000      -2.08253090
I        6.36714552       3.01158655       9.40890158        2       0.00029549       0.00000000      -0.00112827      -2.08089820
I        9.59597254      -0.10348383       9.56200722        2      -0.00000000      -0.00085342      -0.00837049      -2.08365501
Cs       6.68730366       6.53385759       0.13654256        0       0.00417892       0.00417892       0.00000000      -3.48931612
Pb       9.59597254       9.60400050       3.20668547        1      -0.00000000      -0.00000000       0.00285977      -4.43809526
I        9.59597254       9.53713098      -0.01292936        2       0.00000000       0.00000000       0.00000000      -2.10926144
I        6.40034588       9.61810503       3.22079001        2       0.00085342      -0.00000000       0.00837049      -2.08365501
I        9.59597254       6.38438567       3.13981596        2       0.00000000       0.00085342       0.00837049      -2.08365501
Cs       6.63063104       6.32438483       6.13614397        0      -0.00686327      -0.00686327      -0.00000000      -3.48853315
Pb       9.59597254       9.49275588       9.55571868        1       0.00000000       0.00000000      -0.00285977      -4.43809526
I        9.59597254       9.50145598       6.37974889        2       0.00000000      -0.00000000      -0.00000000      -2.08907114
I        6.37529690       9.43894012       9.67029464        2       0.00085342      -0.00000000      -0.00837049      -2.08365501
I        9.59597254       6.30153488       9.52108928        2       0.00000000       0.00085342      -0.00837049      -2.08365501
39
Lattice="12.794630052655515 -6.044561981092832e-18 -2.648027204167534e-18 1.800199171791114e-15 12.794630052655465 5.622564854100682e-14 -5.691634981683643e-16 5.515398801554192e-14 12.794630052655533" Properties=species:S:1:pos:R:3:spacegroup_kinds:I:1:forces:R:3:energies:R:1 spacegroup="P m -3 m" unit_cell=conventional energy=-110.83361575562088 stress="0.000658898092329542 8.310961696124173e-18 -3.902946886930676e-18 8.310961696124173e-18 0.0006588980923288197 1.5672020902688426e-16 -3.902946886930676e-18 1.5672020902688426e-16 0.002055434563904362" free_energy=-110.83361575562088 pbc="T T T"
Cs      -0.32274300      -0.25018074      -0.09742953        0      -0.00417892      -0.00417892      -0.00000000      -3.48931612
Pb       3.19865751       3.23222669       3.47594450        1       0.00000000       0.00000000       0.01048849      -4.16882911
I        3.19865751       6.15201074      -2.00172810        2      -0.00000000       0.00029549      -0.00112827      -2.08089820
I        0.04683840       3.19147681       3.06208514        2      -0.00029549      -0.00000000       0.00112827      -2.08089820
I        3.19865751       0.04660753       4.10328117        2       0.00000000      -0.00029549       0.00112827      -2.08089820
Cs      -0.02574517      -0.09531881       6.51657431        0       0.00686327       0.00686327      -0.00000000      -3.48853315
Pb       3.19865751       3.19725717       9.55210966        1       0.00000000      -0.00000000      -0.01048849      -4.16882911
I        3.19865751       3.89882298       6.51190214        2      -0.00000000      -0.00000000      -0.00000000      -2.11740775
I        0.03332969       3.02815694       9.59521856        2      -0.00029549      -0.00000000      -0.00112827      -2.08089820
I        3.19865751      -0.08449000       9.14878810        2       0.00000000      -0.00029549      -0.00112827      -2.08089820
Cs      -0.19599361       6.45806728       0.09987622        0      -0.00417892       0.00417892       0.00000000      -3.48931612
Pb       3.19865751       9.63850368       3.32863045        1       0.00000000       0.00000000       0.00062556      -4.45148425
I        3.19865751      10.33149449       0.12622991        2      -0.00000000       0.00000000      -0.00000000      -2.05260257
I        0.00248779       9.58649577       3.23380286        2      -0.00085342       0.00000000       0.00837049      -2.08365501
I        3.19865751       6.38975538       2.78372291        2      -0.00000000       0.00029549       0.00112827      -2.08089820
Cs      -0.19509936       6.38193293       6.18824097        0       0.00686327      -0.00686327      -0.00000000      -3.48853315
Pb       3.19865751       9.51769641       9.76020187        1       0.00000000       0.00000000      -0.00062556      -4.45148425
I        3.19865751       8.92628035       6.53579666        2      -0.00000000      -0.00000000      -0.00000000      -2.08253090
I        0.00890717       9.50648068       9.69969929        2      -0.00085342       0.00000000      -0.00837049      -2.08365501
Cs       6.72005803      -0.25018074      -0.09742953        0       0.00417892      -0.00417892      -0.00000000      -3.48931612
Pb       9.59597254       3.13273069       3.14145416        1      -0.00000000       0.00000000       0.00062556      -4.45148425
I        9.59597254       3.22560875      -0.05127585        2       0.00000000      -0.00000000      -0.00000000      -2.05260257
I        6.35047663       3.19147681       3.06208514        2       0.00029549       0.00000000       0.00112827      -2.08089820
I        9.59597254      -0.04676694       2.97128500        2      -0.00000000      -0.00085342       0.00837049      -2.08365501
Cs       6.42306019      -0.09531881       6.51657431        0      -0.00686327       0.00686327      -0.00000000      -3.48853315
Pb       9.59597254       3.11901798       9.55083801        1       0.00000000      -0.00000000      -0.00062556      -4.45148425
I        9.59597254       3.00728854       6.34178024        2       0.00000000      -0.00000000      -0.00000000      -2.08253090
I        6.36398534       3.02815694       9.59521856        2       0.00029549       0.00000000      -0.00112827      -2.08089820
I        9.59597254      -0.09668198       9.69370431        2      -0.00000000      -0.00085342      -0.00837049      -2.08365501
Cs       6.59330864       6.45806728       0.09987622        0       0.00417892       0.00417892       0.00000000      -3.48931612
Pb       9.59597254       9.57274671       3.21593426        1      -0.00000000      -0.00000000       0.00285977      -4.43809526
I        9.59597254       9.41241341       0.00507316        2       0.00000000       0.00000000       0.00000000      -2.10926144
I        6.39482724       9.58649577       3.23380286        2       0.00085342      -0.00000000       0.00837049      -2.08365501
I        9.59597254       6.35340497       3.24718614        2       0.00000000       0.00085342       0.00837049      -2.08365501
Cs       6.59241439       6.38193293       6.18824097        0      -0.00686327      -0.00686327      -0.00000000      -3.48853315
Pb       9.59597254       9.48697429       9.58672413        1       0.00000000       0.00000000      -0.00285977      -4.43809526
I        9.59597254       9.65144761       6.40256450        2       0.00000000      -0.00000000      -0.00000000      -2.08907114
I        6.38840786       9.50648068       9.69969929        2       0.00085342      -0.00000000      -0.00837049      -2.08365501
I        9.59597254       6.30536429       9.42465569        2       0.00000000       0.00085342      -0.00837049      -2.08365501
39
Lattice="12.794630052655515 -6.044561981092832e-18 -2.648027204167534e-18 1.800199171791114e-15 12.794630052655465 5.622564854100682e-14 -5.691634981683643e-16 5.515398801554192e-14 12.794630052655533" Properties=species:S:1:pos:R:3:spacegroup_kinds:I:1:forces:R:3:energies:R:1 spacegroup="P m -3 m" unit_cell=conventional energy=-110.83361575562088 stress="0.000658898092329542 8.310961696124173e-18 -3.902946886930676e-18 8.310961696124173e-18 0.0006588980923288197 1.5672020902688426e-16 -3.902946886930676e-18 1.5672020902688426e-16 0.002055434563904362" free_energy=-110.83361575562088 pbc="T T T"
Cs      -0.22757293      -0.22242906       0.13152951        0      -0.00417892      -0.00417892      -0.00000000      -3.48931612
Pb       3.19865751       3.23767534       3.28784751        1       0.00000000       0.00000000       0.01048849      -4.16882911
I        3.19865751       6.40999683      -2.77651654        2      -0.00000000       0.00029549      -0.00112827      -2.08089820
I        0.03042508       3.09948955       3.10040920        2      -0.00029549      -0.00000000       0.00112827      -2.08089820
I        3.19865751       0.02049448       3.60319690        2       0.00000000      -0.00029549       0.00112827      -2.08089820
Cs       0.01064011      -0.04304058       6.29282380        0       0.00686327       0.00686327      -0.00000000      -3.48853315
Pb       3.19865751       3.24406077       9.40610066        1       0.00000000      -0.00000000      -0.01048849      -4.16882911
I        3.19865751       3.79162401       6.34462721        2      -0.00000000      -0.00000000      -0.00000000      -2.11740775
I        0.04208202       3.22556228       9.77744286        2      -0.00029549      -0.00000000      -0.00112827      -2.08089820
I        3.19865751       0.06428479       8.86784798        2       0.00000000      -0.00029549      -0.00112827      -2.08089820
Cs      -0.10553165       6.47500269      -0.07554881        0      -0.00417892       0.00417892       0.00000000      -3.48931612
Pb       3.19865751       9.56784168       3.10865631        1       0.00000000       0.00000000       0.00062556      -4.45148425
I        3.19865751      10.22092967      -0.07416298        2      -0.00000000       0.00000000      -0.00000000      -2.05260257
I        0.00083381       9.53750025       3.12312208        2      -0.00085342       0.00000000       0.00837049      -2.08365501
I        3.19865751       6.34865276       2.47046005        2      -0.00000000       0.00029549       0.00112827      -2.08089820
Cs      -0.04484647       6.50904103       6.49016647        0       0.00686327      -0.00686327      -0.00000000      -3.48853315
Pb       3.19865751       9.66337210       9.52906203        1       0.00000000       0.00000000      -0.00062556      -4.45148425
I        3.19865751       9.05642360       6.32125920        2      -0.00000000      -0.00000000      -0.00000000      -2.08253090
I        0.00019192       9.63243379       9.57526779        2      -0.00085342       0.00000000      -0.00837049      -2.08365501
Cs       6.62488796      -0.22242906       0.13152951        0       0.00417892      -0.00417892      -0.00000000      -3.48931612
Pb       9.59597254       3.18526448       3.24627210        1      -0.00000000       0.00000000       0.00062556      -4.45148425
I        9.59597254       3.77144396       0.05839605        2       0.00000000      -0.00000000      -0.00000000      -2.05260257
I        6.36688995       3.09948955       3.10040920        2       0.00029549       0.00000000       0.00112827      -2.08089820
I        9.59597254      -0.04266787       2.78432960        2      -0.00000000      -0.00085342       0.00837049      -2.08365501
Cs       6.38667492      -0.04304058       6.29282380        0      -0.00686327       0.00686327      -0.00000000      -3.48853315
Pb       9.59597254       3.18201082       9.66008015        1       0.00000000      -0.00000000      -0.00062556      -4.45148425
I        9.59597254       2.60489731       6.45743545        2       0.00000000      -0.00000000      -0.00000000      -2.08253090
I        6.35523301       3.22556228       9.77744286        2       0.00029549       0.00000000      -0.00112827      -2.08089820
I        9.59597254      -0.00092924      10.26178920        2      -0.00000000      -0.00085342      -0.00837049      -2.08365501
Cs       6.50284668       6.47500269      -0.07554881        0       0.00417892       0.00417892       0.00000000      -3.48931612
Pb       9.59597254       9.52620798       3.22896240        1      -0.00000000      -0.00000000       0.00285977      -4.43809526
I        9.59597254       9.06234492       0.01035560        2       0.00000000       0.00000000       0.00000000      -2.10926144
I        6.39648122       9.53750025       3.12312208        2       0.00085342      -0.00000000       0.00837049      -2.08365501
I        9.59597254       6.35568046       3.85186169        2       0.00000000       0.00085342       0.00837049      -2.08365501
Cs       6.44216149       6.50904103       6.49016647        0      -0.00686327      -0.00686327      -0.00000000      -3.48853315
Pb       9.59597254       9.61348109       9.59340352        1       0.00000000       0.00000000      -0.00285977      -4.43809526
I        9.59597254      10.12071347       6.40617487        2       0.00000000      -0.00000000      -0.00000000      -2.08907114
I        6.39712311       9.63243379       9.57526779        2       0.00085342      -0.00000000      -0.00837049      -2.08365501
I        9.59597254       6.39539459       9.13069149        2       0.00000000       0.00085342      -0.00837049      -2.08365501
39
Lattice="12.794630052655515 -6.044561981092832e-18 -2.648027204167534e-18 1.800199171791114e-15 12.794630052655465 5.622564854100682e-14 -5.691634981683643e-16 5.515398801554192e-14 12.794630052655533" Properties=species:S:1:pos:R:3:spacegroup_kinds:I:1:forces:R:3:energies:R:1 spacegroup="P m -3 m" unit_cell=conventional energy=-110.83361575562088 stress="0.000658898092329542 8.310961696124173e-18 -3.902946886930676e-18 8.310961696124173e-18 0.0006588980923288197 1.5672020902688426e-16 -3.902946886930676e-18 1.5672020902688426e-16 0.002055434563904362" free_energy=-110.83361575562088 pbc="T T T"
Cs      -0.16405062      -0.16405062       0.00000000        0      -0.00417892      -0.00417892      -0.00000000      -3.48931612
Pb       3.19865751       3.19865751       3.30313347        1       0.00000000       0.00000000       0.01048849      -4.16882911
I        3.19865751       6.36505019      -3.11537215        2      -0.00000000       0.00029549      -0.00112827      -2.08089820
I        0.03226483       3.19865751       3.11537215        2      -0.00029549      -0.00000000       0.00112827      -2.08089820
I        3.19865751       0.03226483       3.11537215        2       0.00000000      -0.00029549       0.00112827      -2.08089820
Cs      -0.04691473      -0.04691473       6.39731503        0       0.00686327       0.00686327      -0.00000000      -3.48853315
Pb       3.19865751       3.19865751       9.49149658        1       0.00000000      -0.00000000      -0.01048849      -4.16882911
I        3.19865751       3.19865751       6.39731503        2      -0.00000000      -0.00000000      -0.00000000      -2.11740775
I        0.03226483       3.19865751       9.67925790        2      -0.00029549      -0.00000000      -0.00112827      -2.08089820
I        3.19865751       0.03226483       9.67925790        2       0.00000000      -0.00029549      -0.00112827      -2.08089820
Cs      -0.16405062       6.56136565       0.00000000        0      -0.00417892       0.00417892       0.00000000      -3.48931612
Pb       3.19865751       9.59597254       3.18832574        1       0.00000000       0.00000000       0.00062556      -4.45148425
I        3.19865751       9.59597254       0.00000000        2      -0.00000000       0.00000000      -0.00000000      -2.05260257
I       -0.00021533       9.59597254       3.16517950        2      -0.00085342       0.00000000       0.00837049      -2.08365501
I        3.19865751       6.36505019       3.11537215        2      -0.00000000       0.00029549       0.00112827      -2.08089820
Cs      -0.04691473       6.44422976       6.39731503        0       0.00686327      -0.00686327      -0.00000000      -3.48853315
Pb       3.19865751       9.59597254       9.60630431        1       0.00000000       0.00000000      -0.00062556      -4.45148425
I        3.19865751       9.59597254       6.39731503        2      -0.00000000      -0.00000000      -0.00000000      -2.08253090
I       -0.00021533       9.59597254       9.62945055        2      -0.00085342       0.00000000      -0.00837049      -2.08365501
Cs       6.56136565      -0.16405062       0.00000000        0       0.00417892      -0.00417892      -0.00000000      -3.48931612
Pb       9.59597254       3.19865751       3.18832574        1      -0.00000000       0.00000000       0.00062556      -4.45148425
I        9.59597254       3.19865751       0.00000000        2       0.00000000      -0.00000000      -0.00000000      -2.05260257
I        6.36505019       3.19865751       3.11537215        2       0.00029549       0.00000000       0.00112827      -2.08089820
I        9.59597254      -0.00021533       3.16517950        2      -0.00000000      -0.00085342       0.00837049      -2.08365501
Cs       6.44422976      -0.04691473       6.39731503        0      -0.00686327       0.00686327      -0.00000000      -3.48853315
Pb       9.59597254       3.19865751       9.60630431        1       0.00000000      -0.00000000      -0.00062556      -4.45148425
I        9.59597254       3.19865751       6.39731503        2       0.00000000      -0.00000000      -0.00000000      -2.08253090
I        6.36505019       3.19865751       9.67925790        2       0.00029549       0.00000000      -0.00112827      -2.08089820
I        9.59597254      -0.00021533       9.62945055        2      -0.00000000      -0.00085342      -0.00837049      -2.08365501
Cs       6.56136565       6.56136565       0.00000000        0       0.00417892       0.00417892       0.00000000      -3.48931612
Pb       9.59597254       9.59597254       3.20784434        1      -0.00000000      -0.00000000       0.00285977      -4.43809526
I        9.59597254       9.59597254       0.00000000        2       0.00000000       0.00000000       0.00000000      -2.10926144
I        6.39753035       9.59597254       3.16517950        2       0.00085342      -0.00000000       0.00837049      -2.08365501
I        9.59597254       6.39753035       3.16517950        2       0.00000000       0.00085342       0.00837049      -2.08365501
Cs       6.44422976       6.44422976       6.39731503        0      -0.00686327      -0.00686327      -0.00000000      -3.48853315
Pb       9.59597254       9.59597254       9.58678571        1       0.00000000       0.00000000      -0.00285977      -4.43809526
I        9.59597254       9.59597254       6.39731503        2       0.00000000      -0.00000000      -0.00000000      -2.08907114
I        6.39753035       9.59597254       9.62945055        2       0.00085342      -0.00000000      -0.00837049      -2.08365501
I        9.59597254       6.39753035       9.62945055        2       0.00000000       0.00085342      -0.00837049      -2.08365501
